*SPEF "ieee 1481-1999"
*DESIGN "pmu_fsm"
*DATE "03:02:29 Tuesday October 14, 2025"
*VENDOR "The OpenROAD Project"
*PROGRAM "OpenROAD"
*VERSION "b16bda7e82721d10566ff7e2b68f1ff0be9f9e38"
*DESIGN_FLOW "NAME_SCOPE LOCAL" "PIN_CAP NONE"
*DIVIDER /
*DELIMITER :
*BUS_DELIMITER []
*T_UNIT 1 NS
*C_UNIT 1 PF
*R_UNIT 1 OHM
*L_UNIT 1 HENRY

*NAME_MAP
*3 clk
*4 clk_gate_en
*5 clk_stable
*6 net21
*7 dvfs_ctrl[1]
*8 error
*9 pwr_gate_en
*10 pwr_stable
*11 pwr_state[0]
*12 pwr_state[1]
*13 req_idle
*14 req_off
*15 req_sleep
*16 reset_ctrl
*17 reset_n
*18 retention_en
*19 retention_ready
*20 retention_restore
*21 retention_save
*22 seq_busy
*23 wake_up
*24 _000_
*25 _001_
*26 _002_
*27 _003_
*28 _004_
*29 _005_
*30 _006_
*31 _007_
*32 _008_
*33 _009_
*34 _010_
*35 _011_
*36 _012_
*37 _013_
*38 _014_
*39 _015_
*40 _016_
*41 _017_
*42 _018_
*43 _019_
*44 _020_
*45 _021_
*46 _022_
*47 _023_
*48 _024_
*49 _025_
*50 _026_
*51 _027_
*52 _028_
*53 _029_
*54 _030_
*55 _031_
*56 _032_
*57 _033_
*58 _034_
*59 _035_
*60 _036_
*61 _037_
*62 _038_
*63 _039_
*64 _040_
*65 _041_
*66 _042_
*67 _043_
*68 _044_
*69 _045_
*70 _046_
*71 _047_
*72 _048_
*73 _049_
*74 _050_
*75 _051_
*76 _052_
*77 _053_
*78 _054_
*79 _055_
*80 _056_
*81 _057_
*82 _058_
*83 _059_
*84 _060_
*85 _061_
*86 _062_
*87 _063_
*88 _064_
*89 _065_
*90 _066_
*91 _067_
*92 _068_
*93 _069_
*94 _070_
*95 _071_
*96 _072_
*97 _073_
*98 _074_
*99 _075_
*100 _076_
*101 _077_
*102 _078_
*103 _079_
*104 _080_
*105 _081_
*106 _082_
*107 _083_
*108 _084_
*109 _085_
*110 _086_
*111 _087_
*112 _088_
*113 _089_
*114 _090_
*115 _091_
*116 _092_
*117 _093_
*118 _094_
*119 _095_
*120 _096_
*121 _097_
*122 _098_
*123 _099_
*124 _100_
*125 _101_
*126 _102_
*127 _103_
*128 _104_
*129 _105_
*130 _106_
*131 _107_
*132 _108_
*133 _109_
*134 _110_
*135 _111_
*136 _112_
*137 _113_
*138 _114_
*139 _115_
*140 _116_
*141 clknet_0_clk
*142 clknet_1_0__leaf_clk
*143 clknet_1_1__leaf_clk
*144 curr_state\[0\]
*145 curr_state\[1\]
*146 curr_state\[2\]
*147 net1
*148 net10
*149 net11
*150 net12
*151 net13
*152 net14
*153 net15
*154 net16
*155 net17
*156 net18
*157 net19
*158 net2
*159 net20
*160 net22
*161 net23
*162 net24
*163 net3
*164 net4
*165 net5
*166 net6
*167 net7
*168 net8
*169 net9
*170 next_state\[0\]
*171 next_state\[1\]
*172 next_state\[2\]
*173 req_idle_sync
*174 req_off_sync
*175 req_sleep_sync
*176 seq_timer\[0\]
*177 seq_timer\[1\]
*178 seq_timer\[2\]
*179 seq_timer\[3\]
*180 seq_timer\[4\]
*181 seq_timer\[5\]
*182 seq_timer\[6\]
*183 seq_timer\[7\]
*184 sync_stage1\[0\]
*185 sync_stage1\[1\]
*186 sync_stage1\[2\]
*187 sync_stage1\[3\]
*188 wake_up_sync
*189 FILLER_0_0_105
*190 FILLER_0_0_111
*191 FILLER_0_0_113
*192 FILLER_0_0_121
*193 FILLER_0_0_126
*194 FILLER_0_0_27
*195 FILLER_0_0_3
*196 FILLER_0_0_52
*197 FILLER_0_0_65
*198 FILLER_0_10_100
*199 FILLER_0_10_112
*200 FILLER_0_10_124
*201 FILLER_0_10_18
*202 FILLER_0_10_25
*203 FILLER_0_10_29
*204 FILLER_0_10_33
*205 FILLER_0_10_37
*206 FILLER_0_10_41
*207 FILLER_0_10_53
*208 FILLER_0_10_57
*209 FILLER_0_10_7
*210 FILLER_0_10_88
*211 FILLER_0_11_109
*212 FILLER_0_11_11
*213 FILLER_0_11_113
*214 FILLER_0_11_120
*215 FILLER_0_11_124
*216 FILLER_0_11_17
*217 FILLER_0_11_23
*218 FILLER_0_11_27
*219 FILLER_0_11_3
*220 FILLER_0_11_33
*221 FILLER_0_11_37
*222 FILLER_0_11_49
*223 FILLER_0_11_55
*224 FILLER_0_11_57
*225 FILLER_0_11_85
*226 FILLER_0_11_97
*227 FILLER_0_12_100
*228 FILLER_0_12_112
*229 FILLER_0_12_124
*230 FILLER_0_12_18
*231 FILLER_0_12_26
*232 FILLER_0_12_37
*233 FILLER_0_12_49
*234 FILLER_0_12_6
*235 FILLER_0_12_61
*236 FILLER_0_12_67
*237 FILLER_0_12_83
*238 FILLER_0_12_88
*239 FILLER_0_13_103
*240 FILLER_0_13_111
*241 FILLER_0_13_113
*242 FILLER_0_13_125
*243 FILLER_0_13_24
*244 FILLER_0_13_28
*245 FILLER_0_13_43
*246 FILLER_0_13_83
*247 FILLER_0_13_87
*248 FILLER_0_13_91
*249 FILLER_0_14_109
*250 FILLER_0_14_121
*251 FILLER_0_14_127
*252 FILLER_0_14_29
*253 FILLER_0_14_3
*254 FILLER_0_14_7
*255 FILLER_0_14_80
*256 FILLER_0_14_85
*257 FILLER_0_14_97
*258 FILLER_0_15_102
*259 FILLER_0_15_110
*260 FILLER_0_15_113
*261 FILLER_0_15_125
*262 FILLER_0_15_18
*263 FILLER_0_15_32
*264 FILLER_0_15_44
*265 FILLER_0_15_51
*266 FILLER_0_15_55
*267 FILLER_0_15_57
*268 FILLER_0_15_68
*269 FILLER_0_15_7
*270 FILLER_0_15_90
*271 FILLER_0_16_109
*272 FILLER_0_16_121
*273 FILLER_0_16_127
*274 FILLER_0_16_19
*275 FILLER_0_16_23
*276 FILLER_0_16_27
*277 FILLER_0_16_29
*278 FILLER_0_16_37
*279 FILLER_0_16_51
*280 FILLER_0_16_58
*281 FILLER_0_16_7
*282 FILLER_0_16_72
*283 FILLER_0_16_85
*284 FILLER_0_16_97
*285 FILLER_0_17_106
*286 FILLER_0_17_113
*287 FILLER_0_17_125
*288 FILLER_0_17_23
*289 FILLER_0_17_28
*290 FILLER_0_17_36
*291 FILLER_0_17_41
*292 FILLER_0_17_53
*293 FILLER_0_17_57
*294 FILLER_0_17_64
*295 FILLER_0_17_70
*296 FILLER_0_17_82
*297 FILLER_0_17_86
*298 FILLER_0_17_94
*299 FILLER_0_18_107
*300 FILLER_0_18_119
*301 FILLER_0_18_127
*302 FILLER_0_18_15
*303 FILLER_0_18_22
*304 FILLER_0_18_29
*305 FILLER_0_18_3
*306 FILLER_0_18_41
*307 FILLER_0_18_53
*308 FILLER_0_18_59
*309 FILLER_0_18_66
*310 FILLER_0_18_85
*311 FILLER_0_19_104
*312 FILLER_0_19_113
*313 FILLER_0_19_125
*314 FILLER_0_19_13
*315 FILLER_0_19_35
*316 FILLER_0_19_47
*317 FILLER_0_19_7
*318 FILLER_0_19_73
*319 FILLER_0_19_77
*320 FILLER_0_1_108
*321 FILLER_0_1_113
*322 FILLER_0_1_15
*323 FILLER_0_1_3
*324 FILLER_0_1_57
*325 FILLER_0_1_69
*326 FILLER_0_1_75
*327 FILLER_0_1_96
*328 FILLER_0_20_108
*329 FILLER_0_20_120
*330 FILLER_0_20_23
*331 FILLER_0_20_49
*332 FILLER_0_20_75
*333 FILLER_0_20_83
*334 FILLER_0_20_85
*335 FILLER_0_20_96
*336 FILLER_0_21_109
*337 FILLER_0_21_11
*338 FILLER_0_21_113
*339 FILLER_0_21_23
*340 FILLER_0_21_27
*341 FILLER_0_21_29
*342 FILLER_0_21_41
*343 FILLER_0_21_53
*344 FILLER_0_21_57
*345 FILLER_0_21_62
*346 FILLER_0_21_74
*347 FILLER_0_21_82
*348 FILLER_0_21_85
*349 FILLER_0_21_97
*350 FILLER_0_2_106
*351 FILLER_0_2_118
*352 FILLER_0_2_126
*353 FILLER_0_2_23
*354 FILLER_0_2_27
*355 FILLER_0_2_35
*356 FILLER_0_2_47
*357 FILLER_0_2_51
*358 FILLER_0_2_55
*359 FILLER_0_2_79
*360 FILLER_0_2_83
*361 FILLER_0_2_85
*362 FILLER_0_3_109
*363 FILLER_0_3_113
*364 FILLER_0_3_125
*365 FILLER_0_3_23
*366 FILLER_0_3_35
*367 FILLER_0_3_47
*368 FILLER_0_3_51
*369 FILLER_0_3_55
*370 FILLER_0_3_65
*371 FILLER_0_3_69
*372 FILLER_0_3_74
*373 FILLER_0_3_86
*374 FILLER_0_4_109
*375 FILLER_0_4_121
*376 FILLER_0_4_127
*377 FILLER_0_4_15
*378 FILLER_0_4_27
*379 FILLER_0_4_29
*380 FILLER_0_4_44
*381 FILLER_0_4_78
*382 FILLER_0_4_85
*383 FILLER_0_4_97
*384 FILLER_0_5_101
*385 FILLER_0_5_109
*386 FILLER_0_5_113
*387 FILLER_0_5_125
*388 FILLER_0_5_23
*389 FILLER_0_5_53
*390 FILLER_0_5_57
*391 FILLER_0_5_77
*392 FILLER_0_5_89
*393 FILLER_0_6_109
*394 FILLER_0_6_121
*395 FILLER_0_6_127
*396 FILLER_0_6_19
*397 FILLER_0_6_27
*398 FILLER_0_6_29
*399 FILLER_0_6_33
*400 FILLER_0_6_37
*401 FILLER_0_6_49
*402 FILLER_0_6_55
*403 FILLER_0_6_7
*404 FILLER_0_6_80
*405 FILLER_0_6_85
*406 FILLER_0_6_97
*407 FILLER_0_7_103
*408 FILLER_0_7_111
*409 FILLER_0_7_113
*410 FILLER_0_7_125
*411 FILLER_0_7_19
*412 FILLER_0_7_31
*413 FILLER_0_7_40
*414 FILLER_0_7_51
*415 FILLER_0_7_55
*416 FILLER_0_7_57
*417 FILLER_0_7_63
*418 FILLER_0_7_7
*419 FILLER_0_7_72
*420 FILLER_0_7_81
*421 FILLER_0_8_108
*422 FILLER_0_8_120
*423 FILLER_0_8_27
*424 FILLER_0_8_29
*425 FILLER_0_8_35
*426 FILLER_0_8_39
*427 FILLER_0_8_48
*428 FILLER_0_8_55
*429 FILLER_0_8_59
*430 FILLER_0_8_64
*431 FILLER_0_8_71
*432 FILLER_0_8_82
*433 FILLER_0_9_108
*434 FILLER_0_9_113
*435 FILLER_0_9_125
*436 FILLER_0_9_33
*437 FILLER_0_9_41
*438 FILLER_0_9_45
*439 FILLER_0_9_57
*440 FILLER_0_9_79
*441 FILLER_0_9_84
*442 FILLER_0_9_96
*443 PHY_EDGE_ROW_0_Left_22
*444 PHY_EDGE_ROW_0_Right_0
*445 PHY_EDGE_ROW_10_Left_32
*446 PHY_EDGE_ROW_10_Right_10
*447 PHY_EDGE_ROW_11_Left_33
*448 PHY_EDGE_ROW_11_Right_11
*449 PHY_EDGE_ROW_12_Left_34
*450 PHY_EDGE_ROW_12_Right_12
*451 PHY_EDGE_ROW_13_Left_35
*452 PHY_EDGE_ROW_13_Right_13
*453 PHY_EDGE_ROW_14_Left_36
*454 PHY_EDGE_ROW_14_Right_14
*455 PHY_EDGE_ROW_15_Left_37
*456 PHY_EDGE_ROW_15_Right_15
*457 PHY_EDGE_ROW_16_Left_38
*458 PHY_EDGE_ROW_16_Right_16
*459 PHY_EDGE_ROW_17_Left_39
*460 PHY_EDGE_ROW_17_Right_17
*461 PHY_EDGE_ROW_18_Left_40
*462 PHY_EDGE_ROW_18_Right_18
*463 PHY_EDGE_ROW_19_Left_41
*464 PHY_EDGE_ROW_19_Right_19
*465 PHY_EDGE_ROW_1_Left_23
*466 PHY_EDGE_ROW_1_Right_1
*467 PHY_EDGE_ROW_20_Left_42
*468 PHY_EDGE_ROW_20_Right_20
*469 PHY_EDGE_ROW_21_Left_43
*470 PHY_EDGE_ROW_21_Right_21
*471 PHY_EDGE_ROW_2_Left_24
*472 PHY_EDGE_ROW_2_Right_2
*473 PHY_EDGE_ROW_3_Left_25
*474 PHY_EDGE_ROW_3_Right_3
*475 PHY_EDGE_ROW_4_Left_26
*476 PHY_EDGE_ROW_4_Right_4
*477 PHY_EDGE_ROW_5_Left_27
*478 PHY_EDGE_ROW_5_Right_5
*479 PHY_EDGE_ROW_6_Left_28
*480 PHY_EDGE_ROW_6_Right_6
*481 PHY_EDGE_ROW_7_Left_29
*482 PHY_EDGE_ROW_7_Right_7
*483 PHY_EDGE_ROW_8_Left_30
*484 PHY_EDGE_ROW_8_Right_8
*485 PHY_EDGE_ROW_9_Left_31
*486 PHY_EDGE_ROW_9_Right_9
*487 TAP_TAPCELL_ROW_0_44
*488 TAP_TAPCELL_ROW_0_45
*489 TAP_TAPCELL_ROW_0_46
*490 TAP_TAPCELL_ROW_0_47
*491 TAP_TAPCELL_ROW_10_66
*492 TAP_TAPCELL_ROW_10_67
*493 TAP_TAPCELL_ROW_11_68
*494 TAP_TAPCELL_ROW_11_69
*495 TAP_TAPCELL_ROW_12_70
*496 TAP_TAPCELL_ROW_12_71
*497 TAP_TAPCELL_ROW_13_72
*498 TAP_TAPCELL_ROW_13_73
*499 TAP_TAPCELL_ROW_14_74
*500 TAP_TAPCELL_ROW_14_75
*501 TAP_TAPCELL_ROW_15_76
*502 TAP_TAPCELL_ROW_15_77
*503 TAP_TAPCELL_ROW_16_78
*504 TAP_TAPCELL_ROW_16_79
*505 TAP_TAPCELL_ROW_17_80
*506 TAP_TAPCELL_ROW_17_81
*507 TAP_TAPCELL_ROW_18_82
*508 TAP_TAPCELL_ROW_18_83
*509 TAP_TAPCELL_ROW_19_84
*510 TAP_TAPCELL_ROW_19_85
*511 TAP_TAPCELL_ROW_1_48
*512 TAP_TAPCELL_ROW_1_49
*513 TAP_TAPCELL_ROW_20_86
*514 TAP_TAPCELL_ROW_20_87
*515 TAP_TAPCELL_ROW_21_88
*516 TAP_TAPCELL_ROW_21_89
*517 TAP_TAPCELL_ROW_21_90
*518 TAP_TAPCELL_ROW_21_91
*519 TAP_TAPCELL_ROW_2_50
*520 TAP_TAPCELL_ROW_2_51
*521 TAP_TAPCELL_ROW_3_52
*522 TAP_TAPCELL_ROW_3_53
*523 TAP_TAPCELL_ROW_4_54
*524 TAP_TAPCELL_ROW_4_55
*525 TAP_TAPCELL_ROW_5_56
*526 TAP_TAPCELL_ROW_5_57
*527 TAP_TAPCELL_ROW_6_58
*528 TAP_TAPCELL_ROW_6_59
*529 TAP_TAPCELL_ROW_7_60
*530 TAP_TAPCELL_ROW_7_61
*531 TAP_TAPCELL_ROW_8_62
*532 TAP_TAPCELL_ROW_8_63
*533 TAP_TAPCELL_ROW_9_64
*534 TAP_TAPCELL_ROW_9_65
*535 _117_
*536 _118_
*537 _119_
*538 _120_
*539 _121_
*540 _122_
*541 _123_
*542 _124_
*543 _125_
*544 _126_
*545 _127_
*546 _128_
*547 _129_
*548 _130_
*549 _131_
*550 _132_
*551 _133_
*552 _134_
*553 _135_
*554 _136_
*555 _137_
*556 _138_
*557 _139_
*558 _140_
*559 _141_
*560 _142_
*561 _143_
*562 _144_
*563 _145_
*564 _146_
*565 _147_
*566 _148_
*567 _149_
*568 _150_
*569 _151_
*570 _152_
*571 _153_
*572 _154_
*573 _155_
*574 _156_
*575 _157_
*576 _158_
*577 _159_
*578 _160_
*579 _161_
*580 _162_
*581 _163_
*582 _164_
*583 _165_
*584 _166_
*585 _167_
*586 _168_
*587 _169_
*588 _170_
*589 _171_
*590 _172_
*591 _173_
*592 _174_
*593 _175_
*594 _176_
*595 _177_
*596 _178_
*597 _179_
*598 _180_
*599 _181_
*600 _182_
*601 _183_
*602 _184_
*603 _185_
*604 _186_
*605 _187_
*606 _188_
*607 _189_
*608 _190_
*609 _191_
*610 _192_
*611 _193_
*612 _194_
*613 _195_
*614 _196_
*615 _197_
*616 _198_
*617 _199_
*618 _200_
*619 _201_
*620 _202_
*621 _203_
*622 _204_
*623 _205_
*624 _206_
*625 _207_
*626 _208_
*627 _209_
*628 _210_
*629 _211_
*630 _212_
*631 _213_
*632 _214_
*633 _215_
*634 _216_
*635 _217_
*636 _218_
*637 _219_
*638 _220_
*639 _221_
*640 _222_
*641 _223_
*642 _224_
*643 _225_
*644 _226_
*645 _227_
*646 _228_
*647 _229_
*648 _230_
*649 _231_
*650 _232_
*651 _233_
*652 _234_
*653 _235_
*654 _236_
*655 _237_
*656 _238_
*657 _239_
*658 _240_
*659 _241_
*660 _242_
*661 _243_
*662 _244_
*663 _245_
*664 _246_
*665 _247_
*666 _248_
*667 _249_
*668 _250_
*669 _251_
*670 _252_
*671 _253_
*672 _254_
*673 _255_
*674 _256_
*675 _257_
*676 _258_
*677 _259_
*678 _260_
*679 _261_
*680 _262_
*681 _263_
*682 _264_
*683 _265_
*684 _266_
*685 clkbuf_0_clk
*686 clkbuf_1_0__f_clk
*687 clkbuf_1_1__f_clk
*688 clkload0
*689 hold1
*690 hold2
*691 hold3
*692 input1
*693 input2
*694 input3
*695 input4
*696 input5
*697 input6
*698 input7
*699 output10
*700 output11
*701 output12
*702 output13
*703 output14
*704 output15
*705 output16
*706 output17
*707 output18
*708 output8
*709 output9
*710 pmu_fsm_21
*711 wire19
*712 wire20

*PORTS
clk I
clk_gate_en O
clk_stable I
dvfs_ctrl[0] O
dvfs_ctrl[1] O
error O
pwr_gate_en O
pwr_stable I
pwr_state[0] O
pwr_state[1] O
req_idle I
req_off I
req_sleep I
reset_ctrl O
reset_n I
retention_en O
retention_ready I
retention_restore O
retention_save O
seq_busy O
wake_up I

*D_NET *3 0.00875705
*CONN
*P clk I
*I *685:A I *D sky130_fd_sc_hd__clkbuf_16
*CAP
1 clk 0.00348441
2 *685:A 0
3 *3:23 0.00035662
4 *3:13 0.00384103
5 *3:13 *630:B 4.35681e-06
6 *3:13 *645:A 0.000137788
7 *3:13 *659:RESET_B 0
8 *3:13 *52:23 2.29099e-05
9 *3:13 *59:47 0.000194318
10 *3:13 *59:55 0.000405568
11 *3:13 *61:8 0.000164392
12 *3:13 *143:57 0
13 *3:13 *159:44 7.73867e-05
14 *3:13 *159:65 1.7992e-05
15 *3:23 *128:8 5.02846e-05
16 *3:23 *141:33 0
*RES
1 clk *3:13 44.8995 
2 *3:13 *3:23 33.7818 
3 *3:23 *685:A 23 
*END

*D_NET *4 0.00473865
*CONN
*P clk_gate_en O
*I *708:X O *D sky130_fd_sc_hd__buf_4
*CAP
1 clk_gate_en 0.0014991
2 *708:X 0.000347658
3 *4:8 0.00184676
4 clk_gate_en pwr_gate_en 0.000464974
5 clk_gate_en *9:16 1.22803e-05
6 clk_gate_en *17:156 0
7 clk_gate_en *24:10 0.000351608
8 clk_gate_en *142:45 3.1384e-05
9 clk_gate_en *142:65 0
10 clk_gate_en *142:76 0
11 clk_gate_en *142:95 0
12 clk_gate_en *149:10 0
13 *4:8 *9:16 0.000168975
14 *4:8 *24:10 1.59094e-05
*RES
1 *708:X *4:8 44.815 
2 *4:8 clk_gate_en 31.9957 
*END

*D_NET *5 0.000527404
*CONN
*P clk_stable I
*I *692:A I *D sky130_fd_sc_hd__clkbuf_1
*CAP
1 clk_stable 0.000250396
2 *692:A 0.000250396
3 *692:A *158:16 2.66127e-05
*RES
1 clk_stable *692:A 48.0495 
*END

*D_NET *6 0.000615123
*CONN
*P dvfs_ctrl[0] O
*I *710:HI O *D sky130_fd_sc_hd__conb_1
*CAP
1 dvfs_ctrl[0] 0.000307562
2 *710:HI 0.000307562
3 dvfs_ctrl[0] dvfs_ctrl[1] 0
4 dvfs_ctrl[0] reset_ctrl 0
*RES
1 *710:HI dvfs_ctrl[0] 49.8062 
*END

*D_NET *7 0.000726786
*CONN
*P dvfs_ctrl[1] O
*I *709:X O *D sky130_fd_sc_hd__clkbuf_2
*CAP
1 dvfs_ctrl[1] 0.000118537
2 *709:X 0.000244856
3 *7:10 0.000363393
4 dvfs_ctrl[1] pwr_state[0] 0
5 *7:10 *169:10 0
6 dvfs_ctrl[0] dvfs_ctrl[1] 0
*RES
1 *709:X *7:10 42.3811 
2 *7:10 dvfs_ctrl[1] 8.4816 
*END

*D_NET *8 0.00135836
*CONN
*P error O
*I *699:X O *D sky130_fd_sc_hd__clkbuf_2
*CAP
1 error 0.000195626
2 *699:X 0.000421161
3 *8:10 0.000616787
4 error seq_busy 0
5 *8:10 *22:10 0.000124788
*RES
1 *699:X *8:10 47.0418 
2 *8:10 error 8.672 
*END

*D_NET *9 0.0038553
*CONN
*P pwr_gate_en O
*I *700:X O *D sky130_fd_sc_hd__buf_4
*CAP
1 pwr_gate_en 0.00107514
2 *700:X 0.000357119
3 *9:16 0.00143226
4 pwr_gate_en retention_en 0
5 pwr_gate_en *13:9 0
6 pwr_gate_en *17:160 0
7 pwr_gate_en *17:166 0
8 pwr_gate_en *24:10 0.000178821
9 pwr_gate_en *149:10 0
10 *9:16 *24:10 0.000124795
11 *9:16 *149:10 4.09352e-05
12 clk_gate_en pwr_gate_en 0.000464974
13 clk_gate_en *9:16 1.22803e-05
14 *4:8 *9:16 0.000168975
*RES
1 *700:X *9:16 45.6539 
2 *9:16 pwr_gate_en 20.7552 
*END

*D_NET *10 0.000523467
*CONN
*P pwr_stable I
*I *693:A I *D sky130_fd_sc_hd__clkbuf_1
*CAP
1 pwr_stable 0.000261734
2 *693:A 0.000261734
*RES
1 pwr_stable *693:A 48.0495 
*END

*D_NET *11 0.000640505
*CONN
*P pwr_state[0] O
*I *701:X O *D sky130_fd_sc_hd__clkbuf_2
*CAP
1 pwr_state[0] 0.000320253
2 *701:X 0.000320253
3 pwr_state[0] pwr_state[1] 0
4 pwr_state[0] *150:10 0
5 dvfs_ctrl[1] pwr_state[0] 0
*RES
1 *701:X pwr_state[0] 49.8426 
*END

*D_NET *12 0.000621217
*CONN
*P pwr_state[1] O
*I *702:X O *D sky130_fd_sc_hd__clkbuf_2
*CAP
1 pwr_state[1] 0.000310608
2 *702:X 0.000310608
3 pwr_state[1] seq_busy 0
4 pwr_state[0] pwr_state[1] 0
*RES
1 *702:X pwr_state[1] 49.8062 
*END

*D_NET *13 0.00149193
*CONN
*P req_idle I
*I *689:A I *D sky130_fd_sc_hd__dlygate4sd3_1
*CAP
1 req_idle 0.00074288
2 *689:A 0
3 *13:9 0.00074288
4 *13:9 *667:RESET_B 6.17437e-06
5 *13:9 *17:166 0
6 *13:9 *160:10 0
7 pwr_gate_en *13:9 0
*RES
1 req_idle *13:9 29.0443 
2 *13:9 *689:A 23 
*END

*D_NET *14 0.000903257
*CONN
*P req_off I
*I *690:A I *D sky130_fd_sc_hd__dlygate4sd3_1
*CAP
1 req_off 0.000445644
2 *690:A 0.000445644
3 *690:A *677:RESET_B 1.19692e-05
*RES
1 req_off *690:A 47.3214 
*END

*D_NET *15 0.00166162
*CONN
*P req_sleep I
*I *691:A I *D sky130_fd_sc_hd__dlygate4sd3_1
*CAP
1 req_sleep 0.000830808
2 *691:A 0
3 *15:13 0.000830808
*RES
1 req_sleep *15:13 47.0893 
2 *15:13 *691:A 38 
*END

*D_NET *16 0.000920838
*CONN
*P reset_ctrl O
*I *703:X O *D sky130_fd_sc_hd__buf_2
*CAP
1 reset_ctrl 0.000118537
2 *703:X 0.000341882
3 *16:10 0.000460419
4 reset_ctrl retention_restore 0
5 *16:10 *152:8 0
6 dvfs_ctrl[0] reset_ctrl 0
*RES
1 *703:X *16:10 42.9818 
2 *16:10 reset_ctrl 8.4816 
*END

*D_NET *17 0.0375718
*CONN
*P reset_n I
*I *661:RESET_B I *D sky130_fd_sc_hd__dfrtp_1
*I *671:RESET_B I *D sky130_fd_sc_hd__dfrtp_1
*I *670:RESET_B I *D sky130_fd_sc_hd__dfrtp_1
*I *674:RESET_B I *D sky130_fd_sc_hd__dfrtp_4
*I *669:RESET_B I *D sky130_fd_sc_hd__dfrtp_1
*I *668:RESET_B I *D sky130_fd_sc_hd__dfrtp_1
*I *666:RESET_B I *D sky130_fd_sc_hd__dfrtp_1
*I *667:RESET_B I *D sky130_fd_sc_hd__dfrtp_1
*I *680:RESET_B I *D sky130_fd_sc_hd__dfrtp_1
*I *679:RESET_B I *D sky130_fd_sc_hd__dfrtp_1
*I *683:RESET_B I *D sky130_fd_sc_hd__dfrtp_1
*I *682:RESET_B I *D sky130_fd_sc_hd__dfrtp_1
*I *676:RESET_B I *D sky130_fd_sc_hd__dfrtp_4
*I *675:RESET_B I *D sky130_fd_sc_hd__dfrtp_1
*I *681:RESET_B I *D sky130_fd_sc_hd__dfrtp_1
*I *677:RESET_B I *D sky130_fd_sc_hd__dfrtp_1
*I *678:RESET_B I *D sky130_fd_sc_hd__dfrtp_1
*I *684:RESET_B I *D sky130_fd_sc_hd__dfrtp_1
*I *657:SET_B I *D sky130_fd_sc_hd__dfstp_1
*I *658:RESET_B I *D sky130_fd_sc_hd__dfrtp_1
*I *660:RESET_B I *D sky130_fd_sc_hd__dfrtp_1
*I *659:RESET_B I *D sky130_fd_sc_hd__dfrtp_1
*I *672:RESET_B I *D sky130_fd_sc_hd__dfrtp_1
*I *673:RESET_B I *D sky130_fd_sc_hd__dfrtp_1
*I *662:RESET_B I *D sky130_fd_sc_hd__dfrtp_1
*I *663:RESET_B I *D sky130_fd_sc_hd__dfrtp_1
*I *664:RESET_B I *D sky130_fd_sc_hd__dfrtp_1
*I *665:RESET_B I *D sky130_fd_sc_hd__dfrtp_1
*CAP
1 reset_n 0.000659066
2 *661:RESET_B 0
3 *671:RESET_B 0
4 *670:RESET_B 0
5 *674:RESET_B 0.000636859
6 *669:RESET_B 0.000636859
7 *668:RESET_B 0
8 *666:RESET_B 0
9 *667:RESET_B 0.000163143
10 *680:RESET_B 4.42216e-06
11 *679:RESET_B 2.51772e-05
12 *683:RESET_B 1.32187e-05
13 *682:RESET_B 6.29757e-05
14 *676:RESET_B 0.000196812
15 *675:RESET_B 0
16 *681:RESET_B 0.000151523
17 *677:RESET_B 0.000360369
18 *678:RESET_B 7.32213e-05
19 *684:RESET_B 3.82173e-05
20 *657:SET_B 0.000974738
21 *658:RESET_B 3.27288e-05
22 *660:RESET_B 1.24015e-05
23 *659:RESET_B 0.000107847
24 *672:RESET_B 0.000447117
25 *673:RESET_B 0.000295183
26 *662:RESET_B 7.30867e-06
27 *663:RESET_B 0.000701659
28 *664:RESET_B 0.000108416
29 *665:RESET_B 0.000222946
30 *17:237 0.000754831
31 *17:227 0.000920003
32 *17:215 0.000570831
33 *17:213 0.000195126
34 *17:200 0.000890502
35 *17:196 0.00164726
36 *17:184 0.00143758
37 *17:170 0.00123475
38 *17:166 0.000993891
39 *17:160 0.000514924
40 *17:158 0.00023946
41 *17:156 0.000431177
42 *17:152 0.000658919
43 *17:150 0.000566611
44 *17:148 0.000741793
45 *17:122 0.00112645
46 *17:108 0.000678415
47 *17:106 0.000788775
48 *17:96 0.00137715
49 *17:61 0.0010348
50 *17:59 0.000947921
51 *17:49 0.00118152
52 *17:37 0.00115971
53 *17:11 0.000448925
54 *17:9 0.00127295
55 *657:SET_B *657:D 7.92645e-05
56 *657:SET_B *49:20 0
57 *657:SET_B *51:10 0.000111852
58 *657:SET_B *143:33 5.70419e-05
59 *657:SET_B *143:41 2.93845e-05
60 *658:RESET_B *658:CLK 2.56078e-05
61 *659:RESET_B *645:A 2.29192e-05
62 *659:RESET_B *157:14 0
63 *660:RESET_B *143:25 2.55762e-05
64 *662:RESET_B *143:116 2.84479e-05
65 *663:RESET_B *143:114 0.000222287
66 *663:RESET_B *181:10 5.41385e-05
67 *664:RESET_B *182:6 0.00014006
68 *665:RESET_B *183:6 5.1357e-05
69 *667:RESET_B *149:10 0.00010018
70 *672:RESET_B *672:D 5.74804e-05
71 *672:RESET_B *49:20 8.33829e-05
72 *672:RESET_B *62:10 0.00019683
73 *672:RESET_B *137:10 2.29192e-05
74 *672:RESET_B *143:57 7.61229e-06
75 *672:RESET_B *143:130 0
76 *672:RESET_B *159:44 0.000245183
77 *672:RESET_B *159:65 0.000289649
78 *673:RESET_B *143:130 6.58922e-05
79 *674:RESET_B *674:D 8.87722e-05
80 *674:RESET_B *27:14 0.000186029
81 *674:RESET_B *142:97 1.35714e-05
82 *676:RESET_B *142:185 0.000100782
83 *676:RESET_B *146:8 0.000183057
84 *676:RESET_B *172:10 0.000110267
85 *677:RESET_B *164:10 0
86 *677:RESET_B *184:10 1.19201e-05
87 *679:RESET_B *679:D 5.02764e-05
88 *679:RESET_B *142:33 9.3307e-05
89 *680:RESET_B *680:CLK 2.8521e-05
90 *17:37 *653:A 5.67058e-05
91 *17:37 *653:B 0.000339111
92 *17:37 *74:33 0.000484545
93 *17:37 *79:10 0.000162452
94 *17:37 *143:114 0.000401106
95 *17:49 *143:114 0.000258354
96 *17:49 *143:116 0.000230089
97 *17:49 *180:10 0.000316949
98 *17:59 *662:D 9.91101e-05
99 *17:59 *143:116 0.000198495
100 *17:61 *662:D 0.000181125
101 *17:61 *143:118 5.05471e-05
102 *17:61 *143:130 3.7122e-06
103 *17:96 *654:B 2.68159e-05
104 *17:96 *59:102 4.41587e-05
105 *17:96 *74:33 8.62914e-05
106 *17:96 *86:10 0.00011387
107 *17:96 *143:114 0
108 *17:96 *148:18 0.00016142
109 *17:96 *181:10 4.09558e-05
110 *17:106 *537:A 0.000566289
111 *17:106 *86:10 0.000225275
112 *17:106 *136:28 0
113 *17:106 *143:16 0.00023555
114 *17:106 *143:25 0.000229177
115 *17:106 *148:18 0.000114656
116 *17:106 *178:34 3.85802e-05
117 *17:122 *658:CLK 0.000112087
118 *17:122 *143:25 0.00029515
119 *17:122 *159:27 0.00022034
120 *17:148 *25:8 0.000360161
121 *17:148 *49:20 0
122 *17:148 *138:10 0
123 *17:150 *27:14 0
124 *17:150 *138:10 0
125 *17:156 *21:8 0
126 *17:156 *149:10 0.000168754
127 *17:156 *168:8 0
128 *17:158 *149:10 0.00030457
129 *17:158 *168:8 0
130 *17:160 *149:10 0.000111971
131 *17:166 *680:CLK 2.93845e-05
132 *17:170 *680:CLK 0.000115372
133 *17:170 *680:D 0
134 *17:170 *684:CLK 9.30575e-05
135 *17:170 *684:D 4.31254e-05
136 *17:184 *165:10 0
137 *17:196 *562:A 2.86326e-05
138 *17:196 *683:D 0.000180218
139 *17:196 *173:10 0
140 *17:200 *565:A 3.22879e-05
141 *17:200 *109:10 3.60322e-05
142 *17:200 *174:10 0.000129531
143 *17:213 *174:10 2.7237e-05
144 *17:227 *184:10 0
145 *17:237 *188:8 7.03766e-05
146 *17:237 *188:27 0
147 clk_gate_en *17:156 0
148 pwr_gate_en *17:160 0
149 pwr_gate_en *17:166 0
150 *690:A *677:RESET_B 1.19692e-05
151 *3:13 *659:RESET_B 0
152 *13:9 *667:RESET_B 6.17437e-06
153 *13:9 *17:166 0
*RES
1 reset_n *17:9 13.6921 
2 *17:9 *17:11 1.90571 
3 *17:11 *665:RESET_B 19.5675 
4 *17:11 *664:RESET_B 16.9782 
5 *17:9 *17:37 29.6036 
6 *17:37 *663:RESET_B 2.45464 
7 *663:RESET_B *17:49 12.9982 
8 *17:49 *662:RESET_B 0.548929 
9 *17:49 *17:59 8.265 
10 *17:59 *17:61 3.95643 
11 *17:61 *673:RESET_B 4.52607 
12 *17:61 *672:RESET_B 41.0718 
13 *17:59 *659:RESET_B 31.9057 
14 *17:37 *17:96 28.5264 
15 *17:96 *17:106 47.6486 
16 *17:106 *17:108 15 
17 *17:108 *660:RESET_B 0.548929 
18 *17:108 *17:122 11.7657 
19 *17:122 *658:RESET_B 0.548929 
20 *17:122 *657:SET_B 37.0325 
21 *657:SET_B *17:148 27.035 
22 *17:148 *17:150 4.01857 
23 *17:150 *17:152 7.54 
24 *17:152 *17:156 6.40071 
25 *17:156 *17:158 4.01857 
26 *17:158 *17:160 1.90571 
27 *17:160 *17:166 19.64 
28 *17:166 *17:170 11.1236 
29 *17:170 *684:RESET_B 1.04607 
30 *17:170 *17:184 22.3743 
31 *17:184 *17:196 28.4436 
32 *17:196 *17:200 10.6471 
33 *17:200 *678:RESET_B 31.5536 
34 *17:200 *17:213 2.07143 
35 *17:213 *17:215 15 
36 *17:215 *677:RESET_B 21.3282 
37 *17:215 *17:227 4.01857 
38 *17:227 *681:RESET_B 17.4546 
39 *17:227 *17:237 11.0614 
40 *17:237 *675:RESET_B 15 
41 *17:237 *676:RESET_B 20.3339 
42 *17:213 *682:RESET_B 1.02536 
43 *17:196 *683:RESET_B 0.548929 
44 *17:184 *679:RESET_B 16.0254 
45 *17:166 *680:RESET_B 0.548929 
46 *17:160 *667:RESET_B 17.9311 
47 *17:158 *666:RESET_B 15 
48 *17:156 *668:RESET_B 15 
49 *17:152 *669:RESET_B 15 
50 *669:RESET_B *674:RESET_B 9.86 
51 *17:150 *670:RESET_B 15 
52 *17:148 *671:RESET_B 15 
53 *17:96 *661:RESET_B 15 
*END

*D_NET *18 0.00233804
*CONN
*P retention_en O
*I *704:X O *D sky130_fd_sc_hd__buf_4
*CAP
1 retention_en 0.00116902
2 *704:X 0.00116902
3 retention_en retention_save 0
4 retention_en *142:65 0
5 pwr_gate_en retention_en 0
*RES
1 *704:X retention_en 49.9212 
*END

*D_NET *19 0.000538827
*CONN
*P retention_ready I
*I *697:A I *D sky130_fd_sc_hd__buf_1
*CAP
1 retention_ready 0.000263042
2 *697:A 0.000263042
3 *697:A *166:10 1.27424e-05
*RES
1 retention_ready *697:A 48.0495 
*END

*D_NET *20 0.000874019
*CONN
*P retention_restore O
*I *705:X O *D sky130_fd_sc_hd__buf_2
*CAP
1 retention_restore 0.00012216
2 *705:X 0.00031485
3 *20:10 0.000437009
4 retention_restore retention_save 0
5 reset_ctrl retention_restore 0
*RES
1 *705:X *20:10 42.6296 
2 *20:10 retention_restore 8.4816 
*END

*D_NET *21 0.00100172
*CONN
*P retention_save O
*I *706:X O *D sky130_fd_sc_hd__buf_2
*CAP
1 retention_save 0.000255766
2 *706:X 0.00022453
3 *21:8 0.000480296
4 *21:8 *155:8 4.11274e-05
5 retention_en retention_save 0
6 retention_restore retention_save 0
7 *17:156 *21:8 0
*RES
1 *706:X *21:8 42.5468 
2 *21:8 retention_save 8.9296 
*END

*D_NET *22 0.00119461
*CONN
*P seq_busy O
*I *707:X O *D sky130_fd_sc_hd__clkbuf_2
*CAP
1 seq_busy 0.00016983
2 *707:X 0.000293255
3 *22:10 0.000463085
4 *22:10 *157:14 0.000143655
5 error seq_busy 0
6 pwr_state[1] seq_busy 0
7 *8:10 *22:10 0.000124788
*RES
1 *707:X *22:10 42.5054 
2 *22:10 seq_busy 8.58613 
*END

*D_NET *23 0.00103091
*CONN
*P wake_up I
*I *698:A I *D sky130_fd_sc_hd__clkbuf_1
*CAP
1 wake_up 0.000500761
2 *698:A 0.000500761
3 *698:A *167:8 2.93845e-05
*RES
1 wake_up *698:A 48.2743 
*END

*D_NET *24 0.00186745
*CONN
*I *666:D I *D sky130_fd_sc_hd__dfrtp_1
*I *606:X O *D sky130_fd_sc_hd__o21a_1
*CAP
1 *666:D 0
2 *606:X 0.000597375
3 *24:10 0.000597375
4 *24:10 *88:16 1.56662e-06
5 clk_gate_en *24:10 0.000351608
6 pwr_gate_en *24:10 0.000178821
7 *4:8 *24:10 1.59094e-05
8 *9:16 *24:10 0.000124795
*RES
1 *606:X *24:10 48.585 
2 *24:10 *666:D 38 
*END

*D_NET *25 0.00096015
*CONN
*I *657:D I *D sky130_fd_sc_hd__dfstp_1
*I *608:Y O *D sky130_fd_sc_hd__inv_2
*CAP
1 *657:D 8.84033e-05
2 *608:Y 0.000171959
3 *25:8 0.000260362
4 *25:8 *49:20 0
5 *657:SET_B *657:D 7.92645e-05
6 *17:148 *25:8 0.000360161
*RES
1 *608:Y *25:8 42.7229 
2 *25:8 *657:D 40.0507 
*END

*D_NET *26 0.00494078
*CONN
*I *602:A I *D sky130_fd_sc_hd__nand3_1
*I *667:D I *D sky130_fd_sc_hd__dfrtp_1
*I *601:Y O *D sky130_fd_sc_hd__nor2_1
*CAP
1 *602:A 0
2 *667:D 0
3 *601:Y 0.000183346
4 *26:20 0.00119621
5 *26:10 0.00169614
6 *26:8 0.000683283
7 *26:8 *572:A 0.000121793
8 *26:10 *43:8 0.000155711
9 *26:10 *88:66 4.96024e-05
10 *26:10 *90:16 0
11 *26:10 *105:14 0
12 *26:10 *108:12 0
13 *26:10 *109:10 0
14 *26:10 *110:10 0.000185104
15 *26:20 *667:CLK 5.79559e-05
16 *26:20 *679:D 0.00026757
17 *26:20 *109:10 0
18 *26:20 *110:10 6.16531e-05
19 *26:20 *142:31 3.70071e-06
20 *26:20 *142:33 5.21899e-05
21 *26:20 *142:37 4.77213e-05
22 *26:20 *142:138 0.000135557
23 *26:20 *165:10 0
24 *26:20 *186:8 4.32372e-05
*RES
1 *601:Y *26:8 40.5271 
2 *26:8 *26:10 10.3571 
3 *26:10 *26:20 34.8857 
4 *26:20 *667:D 23 
5 *26:10 *602:A 38 
*END

*D_NET *27 0.00378271
*CONN
*I *669:D I *D sky130_fd_sc_hd__dfrtp_1
*I *616:X O *D sky130_fd_sc_hd__o211a_1
*CAP
1 *669:D 0
2 *616:X 0.000230161
3 *27:14 0.000674192
4 *27:8 0.000904353
5 *27:8 *616:A1 7.53384e-06
6 *27:14 *547:B 5.24393e-05
7 *27:14 *614:A2 0.000196549
8 *27:14 *615:A1 0.000194346
9 *27:14 *46:10 0
10 *27:14 *138:10 0
11 *27:14 *140:12 0.000152166
12 *27:14 *142:97 2.95526e-05
13 *27:14 *142:103 0.000594958
14 *27:14 *143:41 0.000560426
15 *674:RESET_B *27:14 0.000186029
16 *17:150 *27:14 0
*RES
1 *616:X *27:8 41.0036 
2 *27:8 *27:14 35.5071 
3 *27:14 *669:D 23 
*END

*D_NET *28 0.000609332
*CONN
*I *658:D I *D sky130_fd_sc_hd__dfrtp_1
*I *628:Y O *D sky130_fd_sc_hd__nor2_1
*CAP
1 *658:D 0
2 *628:Y 0.000302643
3 *28:10 0.000302643
4 *28:10 *49:20 0
5 *28:10 *59:65 4.04598e-06
6 *28:10 *169:10 0
*RES
1 *628:Y *28:10 42.6607 
2 *28:10 *658:D 38 
*END

*D_NET *29 0.000355126
*CONN
*I *659:D I *D sky130_fd_sc_hd__dfrtp_1
*I *632:Y O *D sky130_fd_sc_hd__nor2_1
*CAP
1 *659:D 0
2 *632:Y 0.000155453
3 *29:10 0.000155453
4 *29:10 *49:20 3.6608e-05
5 *29:10 *59:55 7.61229e-06
*RES
1 *632:Y *29:10 40.5271 
2 *29:10 *659:D 38 
*END

*D_NET *30 0.000944582
*CONN
*I *660:D I *D sky130_fd_sc_hd__dfrtp_1
*I *637:Y O *D sky130_fd_sc_hd__nor2_1
*CAP
1 *660:D 0.000267596
2 *637:Y 5.94633e-05
3 *30:8 0.000327059
4 *660:D *143:25 0.000204176
5 *30:8 *136:28 8.62876e-05
6 *30:8 *178:34 0
*RES
1 *637:Y *30:8 39.2014 
2 *30:8 *660:D 42.0238 
*END

*D_NET *31 0.00229452
*CONN
*I *661:D I *D sky130_fd_sc_hd__dfrtp_1
*I *641:Y O *D sky130_fd_sc_hd__nor2_1
*CAP
1 *661:D 0.000167276
2 *641:Y 0.000558808
3 *31:8 0.000726084
4 *661:D *86:10 0
5 *661:D *143:80 1.14452e-05
6 *661:D *143:95 0.00031713
7 *31:8 *59:102 5.10152e-05
8 *31:8 *80:10 0.000279219
9 *31:8 *148:18 0.000183547
*RES
1 *641:Y *31:8 46.2443 
2 *31:8 *661:D 42.3707 
*END

*D_NET *32 0.000578377
*CONN
*I *662:D I *D sky130_fd_sc_hd__dfrtp_1
*I *645:Y O *D sky130_fd_sc_hd__nor2_1
*CAP
1 *662:D 7.47475e-05
2 *645:Y 7.47475e-05
3 *662:D *143:116 7.42208e-05
4 *662:D *143:118 7.44257e-05
5 *17:59 *662:D 9.91101e-05
6 *17:61 *662:D 0.000181125
*RES
1 *645:Y *662:D 49.0036 
*END

*D_NET *33 0.000545118
*CONN
*I *663:D I *D sky130_fd_sc_hd__dfrtp_1
*I *650:Y O *D sky130_fd_sc_hd__nor2_1
*CAP
1 *663:D 0
2 *650:Y 0.000162174
3 *33:10 0.000162174
4 *33:10 *59:35 0.000194309
5 *33:10 *59:47 2.64616e-05
*RES
1 *650:Y *33:10 41.2314 
2 *33:10 *663:D 38 
*END

*D_NET *34 0.000384102
*CONN
*I *664:D I *D sky130_fd_sc_hd__dfrtp_1
*I *654:Y O *D sky130_fd_sc_hd__nor2_1
*CAP
1 *664:D 0.000131971
2 *654:Y 0.000131971
3 *664:D *652:B 6.17437e-06
4 *664:D *182:10 0.000113985
*RES
1 *654:Y *664:D 48.5271 
*END

*D_NET *35 0.000932896
*CONN
*I *665:D I *D sky130_fd_sc_hd__dfrtp_1
*I *656:Y O *D sky130_fd_sc_hd__nor2_1
*CAP
1 *665:D 0
2 *656:Y 0.000340762
3 *35:10 0.000340762
4 *35:10 *539:B 5.481e-05
5 *35:10 *85:10 2.81612e-05
6 *35:10 *143:101 0.000138859
7 *35:10 *182:27 2.95423e-05
*RES
1 *656:Y *35:10 29.5043 
2 *35:10 *665:D 23 
*END

*D_NET *36 0.00164675
*CONN
*I *595:A I *D sky130_fd_sc_hd__nor2_1
*I *594:Y O *D sky130_fd_sc_hd__nand2_1
*CAP
1 *595:A 4.07994e-05
2 *594:Y 0.000487314
3 *36:10 0.000528113
4 *595:A *589:B 9.84851e-05
5 *595:A *596:A 4.37033e-05
6 *595:A *38:10 1.76557e-05
7 *36:10 *545:B 5.50049e-05
8 *36:10 *583:A 4.75206e-05
9 *36:10 *89:16 0
10 *36:10 *92:16 6.89897e-05
11 *36:10 *92:24 3.10889e-05
12 *36:10 *121:10 2.07444e-05
13 *36:10 *125:16 5.50049e-05
14 *36:10 *126:18 1.36046e-05
15 *36:10 *127:10 0.000138718
16 *36:10 *129:10 0
*RES
1 *594:Y *36:10 45.6229 
2 *36:10 *595:A 39.595 
*END

*D_NET *37 0.000229577
*CONN
*I *596:A I *D sky130_fd_sc_hd__nor2_1
*I *595:Y O *D sky130_fd_sc_hd__nor2_1
*CAP
1 *596:A 5.66068e-05
2 *595:Y 5.66068e-05
3 *596:A *589:B 1.76557e-05
4 *596:A *38:10 5.50049e-05
5 *595:A *596:A 4.37033e-05
*RES
1 *595:Y *596:A 47.595 
*END

*D_NET *38 0.00142101
*CONN
*I *622:A I *D sky130_fd_sc_hd__nand3_1
*I *605:A I *D sky130_fd_sc_hd__nand2_1
*I *596:Y O *D sky130_fd_sc_hd__nor2_1
*CAP
1 *622:A 0
2 *605:A 0.000199794
3 *596:Y 0.000240238
4 *38:10 0.000440032
5 *605:A *592:A 4.41821e-06
6 *605:A *145:6 2.10502e-05
7 *605:A *172:10 2.95423e-05
8 *38:10 *592:A 9.81772e-05
9 *38:10 *54:10 0.000139647
10 *38:10 *132:10 0.000175449
11 *595:A *38:10 1.76557e-05
12 *596:A *38:10 5.50049e-05
*RES
1 *596:Y *38:10 44.1729 
2 *38:10 *605:A 41.2314 
3 *38:10 *622:A 38 
*END

*D_NET *39 0.00207307
*CONN
*I *604:A2 I *D sky130_fd_sc_hd__a21oi_1
*I *612:A I *D sky130_fd_sc_hd__or3b_1
*I *597:Y O *D sky130_fd_sc_hd__inv_2
*CAP
1 *604:A2 6.73739e-05
2 *612:A 0.000602762
3 *597:Y 0
4 *39:4 0.000670136
5 *604:A2 *604:B1 1.37232e-05
6 *604:A2 *611:B 1.79293e-05
7 *604:A2 *115:8 4.07902e-05
8 *604:A2 *144:104 4.5051e-05
9 *612:A *571:A 3.22051e-05
10 *612:A *611:B 9.94869e-05
11 *612:A *48:8 9.8173e-05
12 *612:A *115:8 0.000108268
13 *612:A *144:104 0.000277173
*RES
1 *597:Y *39:4 23 
2 *39:4 *612:A 35.0764 
3 *39:4 *604:A2 25.0921 
*END

*D_NET *40 0.0040307
*CONN
*I *603:A2 I *D sky130_fd_sc_hd__o211ai_2
*I *607:B I *D sky130_fd_sc_hd__nor2_1
*I *598:Y O *D sky130_fd_sc_hd__nand2_1
*CAP
1 *603:A2 0.000470203
2 *607:B 0
3 *598:Y 0
4 *40:22 0.000291428
5 *40:12 0.000850775
6 *40:4 0.00102955
7 *603:A2 *591:B1 1.9054e-05
8 *603:A2 *44:10 5.5792e-05
9 *603:A2 *88:66 0.000360958
10 *603:A2 *144:69 6.12312e-05
11 *40:12 *90:12 0.000196318
12 *40:12 *90:49 2.53488e-05
13 *40:12 *105:14 1.0092e-05
14 *40:12 *105:36 0.000221667
15 *40:12 *118:14 4.66031e-05
16 *40:22 *607:A 0.000153226
17 *40:22 *609:B1 5.3304e-05
18 *40:22 *46:10 1.59071e-05
19 *40:22 *136:12 3.39102e-05
20 *40:22 *146:59 0.000135329
*RES
1 *598:Y *40:4 23 
2 *40:4 *40:12 38.3479 
3 *40:12 *40:22 35.8829 
4 *40:22 *607:B 23 
5 *40:4 *603:A2 30.1879 
*END

*D_NET *41 0.000595783
*CONN
*I *600:A I *D sky130_fd_sc_hd__nand3_1
*I *599:Y O *D sky130_fd_sc_hd__nand2_1
*CAP
1 *600:A 0
2 *599:Y 0.000185319
3 *41:10 0.000185319
4 *41:10 *599:A 8.1796e-05
5 *41:10 *103:17 0.000138718
6 *41:10 *146:98 4.6318e-06
*RES
1 *599:Y *41:10 41.48 
2 *41:10 *600:A 38 
*END

*D_NET *42 0.00171035
*CONN
*I *603:B1 I *D sky130_fd_sc_hd__o211ai_2
*I *600:Y O *D sky130_fd_sc_hd__nand3_1
*CAP
1 *603:B1 0
2 *600:Y 0.000115781
3 *42:18 0.000488019
4 *42:10 0.0006038
5 *42:10 *591:A3 3.6608e-05
6 *42:10 *103:17 4.41821e-06
7 *42:10 *112:19 5.67058e-05
8 *42:18 *43:8 1.20296e-05
9 *42:18 *113:8 8.87351e-05
10 *42:18 *144:69 0.000248463
11 *42:18 *188:27 5.5792e-05
*RES
1 *600:Y *42:10 39.8229 
2 *42:10 *42:18 37.0636 
3 *42:18 *603:B1 38 
*END

*D_NET *43 0.000665794
*CONN
*I *603:C1 I *D sky130_fd_sc_hd__o211ai_2
*I *602:Y O *D sky130_fd_sc_hd__nand3_1
*CAP
1 *603:C1 0
2 *602:Y 0.000222724
3 *43:8 0.000222724
4 *43:8 *108:12 2.79004e-05
5 *43:8 *111:10 2.47037e-05
6 *26:10 *43:8 0.000155711
7 *42:18 *43:8 1.20296e-05
*RES
1 *602:Y *43:8 42.3707 
2 *43:8 *603:C1 38 
*END

*D_NET *44 0.00338146
*CONN
*I *604:B1 I *D sky130_fd_sc_hd__a21oi_1
*I *623:A I *D sky130_fd_sc_hd__inv_2
*I *603:Y O *D sky130_fd_sc_hd__o211ai_2
*CAP
1 *604:B1 0.000218409
2 *623:A 0.000137272
3 *603:Y 0.00033243
4 *44:10 0.000688111
5 *604:B1 *573:B 2.66471e-05
6 *604:B1 *611:B 0.000145775
7 *604:B1 *45:8 0.000268074
8 *604:B1 *58:10 0.00015795
9 *604:B1 *115:16 0
10 *604:B1 *141:18 0.000154289
11 *623:A *590:A2 2.45549e-06
12 *623:A *590:B1 0.000123241
13 *623:A *133:8 1.358e-05
14 *623:A *146:14 0.00030864
15 *44:10 *573:B 3.46013e-05
16 *44:10 *88:66 4.73379e-05
17 *44:10 *90:49 0
18 *44:10 *113:8 6.75596e-05
19 *44:10 *141:18 0.000392771
20 *44:10 *144:69 5.82853e-05
21 *44:10 *146:16 0.000134517
22 *603:A2 *44:10 5.5792e-05
23 *604:A2 *604:B1 1.37232e-05
*RES
1 *603:Y *44:10 46.1614 
2 *44:10 *623:A 41.9771 
3 *44:10 *604:B1 44.815 
*END

*D_NET *45 0.0031906
*CONN
*I *622:C I *D sky130_fd_sc_hd__nand3_1
*I *605:B I *D sky130_fd_sc_hd__nand2_1
*I *604:Y O *D sky130_fd_sc_hd__a21oi_1
*CAP
1 *622:C 1.51302e-05
2 *605:B 0.000137667
3 *604:Y 0.000406032
4 *45:10 0.000248314
5 *45:8 0.000501549
6 *605:B *130:23 0.000110267
7 *605:B *145:23 5.82853e-05
8 *622:C *592:A 5.58003e-05
9 *622:C *146:10 5.58003e-05
10 *45:8 *611:B 7.36732e-05
11 *45:8 *627:A 0.000113092
12 *45:8 *89:12 0.000354122
13 *45:8 *144:104 0.000436767
14 *45:10 *592:A 3.69096e-05
15 *45:10 *130:23 0.000207265
16 *45:10 *135:10 0.000111852
17 *604:B1 *45:8 0.000268074
*RES
1 *604:Y *45:8 48.6264 
2 *45:8 *45:10 2.96214 
3 *45:10 *605:B 40.8793 
4 *45:10 *622:C 38.6214 
*END

*D_NET *46 0.00319955
*CONN
*I *608:A I *D sky130_fd_sc_hd__inv_2
*I *611:A I *D sky130_fd_sc_hd__nor2_1
*I *607:Y O *D sky130_fd_sc_hd__nor2_1
*CAP
1 *608:A 0
2 *611:A 0
3 *607:Y 0.000337174
4 *46:27 0.000584863
5 *46:10 0.000922037
6 *46:10 *607:A 1.3523e-05
7 *46:10 *48:16 0.000215801
8 *46:10 *88:16 0.000375375
9 *46:27 *614:A2 0
10 *46:27 *614:B1 7.90568e-05
11 *46:27 *87:26 0.000185428
12 *46:27 *88:16 0.000199701
13 *46:27 *90:72 0
14 *46:27 *92:24 0.000270682
15 *46:27 *100:10 0
16 *46:27 *156:10 0
17 *27:14 *46:10 0
18 *40:22 *46:10 1.59071e-05
*RES
1 *607:Y *46:10 45.1257 
2 *46:10 *611:A 38 
3 *46:10 *46:27 27.8843 
4 *46:27 *608:A 23 
*END

*D_NET *47 0.00222464
*CONN
*I *614:B1 I *D sky130_fd_sc_hd__a21o_1
*I *612:B I *D sky130_fd_sc_hd__or3b_1
*I *610:Y O *D sky130_fd_sc_hd__nor2_1
*CAP
1 *614:B1 0.000281494
2 *612:B 0
3 *610:Y 0.00037473
4 *47:10 0.000656224
5 *614:B1 *555:A 9.4713e-05
6 *614:B1 *555:B 0.00013501
7 *614:B1 *615:A2 0.000105062
8 *614:B1 *48:16 9.168e-05
9 *614:B1 *100:10 1.58805e-05
10 *614:B1 *100:25 0.000137651
11 *47:10 *610:A 2.64616e-05
12 *47:10 *610:B 7.51453e-06
13 *47:10 *615:A1 9.20311e-06
14 *47:10 *615:A2 4.08641e-05
15 *47:10 *48:16 0.000169097
16 *46:27 *614:B1 7.90568e-05
*RES
1 *610:Y *47:10 44.4629 
2 *47:10 *612:B 38 
3 *47:10 *614:B1 45.2914 
*END

*D_NET *48 0.0011322
*CONN
*I *612:C_N I *D sky130_fd_sc_hd__or3b_1
*I *615:B1 I *D sky130_fd_sc_hd__o21ai_1
*I *611:Y O *D sky130_fd_sc_hd__nor2_1
*CAP
1 *612:C_N 0
2 *615:B1 0
3 *611:Y 8.48224e-05
4 *48:16 0.000188135
5 *48:8 0.000272957
6 *48:8 *611:B 4.00259e-06
7 *48:16 *615:A1 0
8 *48:16 *615:A2 7.53384e-06
9 *612:A *48:8 9.8173e-05
10 *614:B1 *48:16 9.168e-05
11 *46:10 *48:16 0.000215801
12 *47:10 *48:16 0.000169097
*RES
1 *611:Y *48:8 24.595 
2 *48:8 *48:16 34.5364 
3 *48:16 *615:B1 23 
4 *48:8 *612:C_N 23 
*END

*D_NET *49 0.00490312
*CONN
*I *613:A I *D sky130_fd_sc_hd__clkbuf_1
*I *612:X O *D sky130_fd_sc_hd__or3b_1
*CAP
1 *613:A 0
2 *612:X 0.00013402
3 *49:20 0.00152552
4 *49:8 0.00165954
5 *49:20 *616:A1 0
6 *49:20 *620:B 1.69668e-05
7 *49:20 *51:10 0
8 *49:20 *52:23 0
9 *49:20 *59:65 0.000591908
10 *49:20 *62:10 0.000143166
11 *49:20 *94:12 0
12 *49:20 *137:10 3.16665e-05
13 *49:20 *139:8 8.85189e-05
14 *49:20 *143:41 0.000404259
15 *49:20 *143:130 3.43965e-05
16 *49:20 *159:27 0
17 *49:20 *159:44 0.000115038
18 *49:20 *176:10 3.81391e-05
19 *657:SET_B *49:20 0
20 *672:RESET_B *49:20 8.33829e-05
21 *17:148 *49:20 0
22 *25:8 *49:20 0
23 *28:10 *49:20 0
24 *29:10 *49:20 3.6608e-05
*RES
1 *612:X *49:8 39.5743 
2 *49:8 *49:20 47.9564 
3 *49:20 *613:A 23 
*END

*D_NET *50 0.000466856
*CONN
*I *618:B1 I *D sky130_fd_sc_hd__a211oi_1
*I *617:Y O *D sky130_fd_sc_hd__nand2_1
*CAP
1 *618:B1 0.000194566
2 *617:Y 0.000194566
3 *618:B1 *617:A 1.67458e-05
4 *618:B1 *618:A1 1.14762e-05
5 *618:B1 *125:31 1.14154e-05
6 *618:B1 *148:10 3.80863e-05
*RES
1 *617:Y *618:B1 49.19 
*END

*D_NET *51 0.00106144
*CONN
*I *621:A I *D sky130_fd_sc_hd__nand2_1
*I *619:X O *D sky130_fd_sc_hd__or2_1
*CAP
1 *621:A 0
2 *619:X 0.000312308
3 *51:10 0.000312308
4 *51:10 *550:A 5.50049e-05
5 *51:10 *620:B 1.86973e-05
6 *51:10 *94:12 2.1199e-05
7 *51:10 *143:33 4.95081e-05
8 *51:10 *159:27 0.000147391
9 *51:10 *176:10 3.31683e-05
10 *657:SET_B *51:10 0.000111852
11 *49:20 *51:10 0
*RES
1 *619:X *51:10 44.6493 
2 *51:10 *621:A 38 
*END

*D_NET *52 0.00094148
*CONN
*I *629:B I *D sky130_fd_sc_hd__or2_1
*I *630:A I *D sky130_fd_sc_hd__nand2_1
*I *621:B I *D sky130_fd_sc_hd__nand2_1
*I *620:Y O *D sky130_fd_sc_hd__nand2_1
*CAP
1 *629:B 2.89015e-05
2 *630:A 0
3 *621:B 2.98907e-05
4 *620:Y 2.90788e-05
5 *52:23 0.000147386
6 *52:6 0.000235257
7 *621:B *620:A 0
8 *621:B *53:8 5.38706e-05
9 *621:B *94:8 0
10 *629:B *536:B 2.98648e-05
11 *629:B *159:31 9.84851e-05
12 *52:6 *620:A 5.67058e-05
13 *52:6 *53:8 4.66654e-05
14 *52:6 *159:31 8.52481e-05
15 *52:23 *630:B 0
16 *52:23 *159:27 9.48381e-06
17 *52:23 *159:44 6.7733e-05
18 *3:13 *52:23 2.29099e-05
19 *49:20 *52:23 0
*RES
1 *620:Y *52:6 24.5743 
2 *52:6 *621:B 24.0875 
3 *52:6 *52:23 32.8793 
4 *52:23 *630:A 23 
5 *52:6 *629:B 24.0979 
*END

*D_NET *53 0.000644765
*CONN
*I *628:A I *D sky130_fd_sc_hd__nor2_1
*I *621:Y O *D sky130_fd_sc_hd__nand2_1
*CAP
1 *628:A 0
2 *621:Y 0.00018257
3 *53:8 0.00018257
4 *53:8 *536:B 9.84851e-05
5 *53:8 *620:A 1.76557e-05
6 *53:8 *59:65 6.29487e-05
7 *621:B *53:8 5.38706e-05
8 *52:6 *53:8 4.66654e-05
*RES
1 *621:Y *53:8 27.4536 
2 *53:8 *628:A 23 
*END

*D_NET *54 0.00146051
*CONN
*I *627:A I *D sky130_fd_sc_hd__nand3_4
*I *622:Y O *D sky130_fd_sc_hd__nand3_1
*CAP
1 *627:A 0.00017649
2 *622:Y 0.000102197
3 *54:10 0.000278688
4 *627:A *593:A 9.41704e-05
5 *627:A *89:12 0.000141954
6 *627:A *131:8 0.000245244
7 *54:10 *590:B1 2.93845e-05
8 *54:10 *592:A 0.000139647
9 *38:10 *54:10 0.000139647
10 *45:8 *627:A 0.000113092
*RES
1 *622:Y *54:10 40.5271 
2 *54:10 *627:A 43.075 
*END

*D_NET *55 0.000598196
*CONN
*I *627:B I *D sky130_fd_sc_hd__nand3_4
*I *623:Y O *D sky130_fd_sc_hd__inv_2
*CAP
1 *627:B 0
2 *623:Y 0.000147721
3 *55:10 0.000147721
4 *55:10 *59:10 1.47563e-05
5 *55:10 *89:8 0.000138718
6 *55:10 *90:92 4.90994e-05
7 *55:10 *133:8 0.00010018
*RES
1 *623:Y *55:10 41.3557 
2 *55:10 *627:B 38 
*END

*D_NET *56 0.00137602
*CONN
*I *626:A I *D sky130_fd_sc_hd__nand2_1
*I *624:Y O *D sky130_fd_sc_hd__nand2_1
*CAP
1 *626:A 0.000302075
2 *624:Y 0.000126366
3 *56:10 0.00042844
4 *626:A *573:A 7.6764e-05
5 *626:A *610:B 0.0002778
6 *626:A *101:33 4.44329e-05
7 *626:A *117:10 1.24376e-05
8 *56:10 *607:A 5.56356e-05
9 *56:10 *57:10 0
10 *56:10 *136:12 5.20648e-05
*RES
1 *624:Y *56:10 40.175 
2 *56:10 *626:A 43.4064 
*END

*D_NET *57 0.000573193
*CONN
*I *626:B I *D sky130_fd_sc_hd__nand2_1
*I *625:Y O *D sky130_fd_sc_hd__nand3_1
*CAP
1 *626:B 0
2 *625:Y 0.000161219
3 *57:10 0.000161219
4 *57:10 *607:A 1.74874e-06
5 *57:10 *625:C 0.000102389
6 *57:10 *101:29 0.000146618
7 *56:10 *57:10 0
*RES
1 *625:Y *57:10 41.0036 
2 *57:10 *626:B 38 
*END

*D_NET *58 0.00126525
*CONN
*I *627:C I *D sky130_fd_sc_hd__nand3_4
*I *626:Y O *D sky130_fd_sc_hd__nand2_1
*CAP
1 *627:C 0
2 *626:Y 0.000305008
3 *58:10 0.000305008
4 *58:10 *573:A 9.67842e-05
5 *58:10 *573:B 0.000132671
6 *58:10 *590:A1 2.97099e-05
7 *58:10 *590:A2 0.000228903
8 *58:10 *115:16 0
9 *58:10 *141:18 9.21347e-06
10 *604:B1 *58:10 0.00015795
*RES
1 *626:Y *58:10 45.5193 
2 *58:10 *627:C 38 
*END

*D_NET *59 0.0155021
*CONN
*I *654:B I *D sky130_fd_sc_hd__nor2_1
*I *656:B I *D sky130_fd_sc_hd__nor2_1
*I *641:B I *D sky130_fd_sc_hd__nor2_1
*I *650:B I *D sky130_fd_sc_hd__nor2_1
*I *645:B I *D sky130_fd_sc_hd__nor2_1
*I *632:B I *D sky130_fd_sc_hd__nor2_1
*I *628:B I *D sky130_fd_sc_hd__nor2_1
*I *637:B I *D sky130_fd_sc_hd__nor2_1
*I *627:Y O *D sky130_fd_sc_hd__nand3_4
*CAP
1 *654:B 0.00021354
2 *656:B 0
3 *641:B 2.01555e-05
4 *650:B 0
5 *645:B 0
6 *632:B 0
7 *628:B 0
8 *637:B 0
9 *627:Y 0
10 *59:102 0.00055664
11 *59:89 0.000469327
12 *59:65 0.000430837
13 *59:55 0.000799097
14 *59:47 0.00140928
15 *59:35 0.00149711
16 *59:22 0.000728371
17 *59:14 0.00136889
18 *59:10 0.00138061
19 *59:6 0.00109011
20 *641:B *641:A 5.55743e-06
21 *654:B *80:10 5.75756e-06
22 *654:B *182:27 0.000166742
23 *59:10 *551:A 3.18319e-05
24 *59:10 *581:B 0.000101232
25 *59:10 *594:B 0
26 *59:10 *618:A1 0
27 *59:10 *67:10 7.42423e-05
28 *59:10 *82:22 0.000121143
29 *59:10 *87:14 8.51432e-05
30 *59:10 *89:8 1.14452e-05
31 *59:10 *90:92 0
32 *59:10 *98:10 0
33 *59:10 *122:20 2.11157e-05
34 *59:10 *123:37 8.54238e-05
35 *59:10 *124:10 0
36 *59:10 *124:16 0
37 *59:10 *125:31 0
38 *59:10 *131:25 0
39 *59:10 *141:18 8.16253e-05
40 *59:10 *141:33 0.000283362
41 *59:10 *143:16 6.32688e-05
42 *59:10 *148:18 0
43 *59:10 *179:14 1.007e-05
44 *59:14 *640:B 0.000141352
45 *59:14 *641:A 7.48505e-05
46 *59:14 *148:18 1.12268e-05
47 *59:22 *635:B 0
48 *59:22 *637:A 5.79559e-05
49 *59:22 *639:A 6.36543e-05
50 *59:22 *63:8 0
51 *59:22 *82:12 0.00016383
52 *59:22 *122:8 2.15048e-05
53 *59:22 *123:37 0.0002312
54 *59:22 *178:34 5.56356e-05
55 *59:22 *178:45 0.000347385
56 *59:35 *71:21 2.27534e-05
57 *59:35 *76:8 0.000177137
58 *59:35 *123:37 0.00041087
59 *59:35 *159:52 0.000168678
60 *59:35 *180:10 1.63052e-05
61 *59:47 *157:14 0.000243658
62 *59:47 *159:65 9.27917e-05
63 *59:55 *159:44 2.90581e-05
64 *59:55 *159:52 5.14826e-05
65 *59:55 *159:65 0.000172603
66 *59:65 *620:A 0
67 *59:89 *641:A 4.839e-05
68 *59:89 *148:18 2.97099e-05
69 *59:102 *80:10 7.7495e-05
70 *59:102 *148:18 5.67018e-05
71 *3:13 *59:47 0.000194318
72 *3:13 *59:55 0.000405568
73 *17:96 *654:B 2.68159e-05
74 *17:96 *59:102 4.41587e-05
75 *28:10 *59:65 4.04598e-06
76 *29:10 *59:55 7.61229e-06
77 *31:8 *59:102 5.10152e-05
78 *33:10 *59:35 0.000194309
79 *33:10 *59:47 2.64616e-05
80 *49:20 *59:65 0.000591908
81 *53:8 *59:65 6.29487e-05
82 *55:10 *59:10 1.47563e-05
*RES
1 *627:Y *59:6 38 
2 *59:6 *59:10 38.3864 
3 *59:10 *59:14 18.48 
4 *59:14 *59:22 30.225 
5 *59:22 *637:B 23 
6 *59:14 *59:35 26.8279 
7 *59:35 *59:47 35.0929 
8 *59:47 *59:55 23.9279 
9 *59:55 *59:65 40.44 
10 *59:65 *628:B 23 
11 *59:55 *632:B 23 
12 *59:47 *645:B 38 
13 *59:35 *650:B 23 
14 *59:10 *59:89 2.05071 
15 *59:89 *641:B 23.4971 
16 *59:89 *59:102 21.6907 
17 *59:102 *656:B 38 
18 *59:102 *654:B 43.0336 
*END

*D_NET *60 0.00309013
*CONN
*I *631:A I *D sky130_fd_sc_hd__nand2_1
*I *635:A I *D sky130_fd_sc_hd__nand2_1
*I *639:B I *D sky130_fd_sc_hd__or2_1
*I *634:B I *D sky130_fd_sc_hd__or2_1
*I *629:X O *D sky130_fd_sc_hd__or2_1
*CAP
1 *631:A 0.000225511
2 *635:A 0
3 *639:B 5.94759e-05
4 *634:B 0
5 *629:X 0.000103616
6 *60:18 0.000463334
7 *60:12 0.000669007
8 *60:8 0.000594276
9 *631:A *672:D 1.21972e-05
10 *631:A *143:57 0.000353855
11 *631:A *177:14 0
12 *639:B *638:A 0.000147237
13 *60:8 *143:57 0.000164659
14 *60:8 *177:14 0
15 *60:18 *634:A 5.52998e-05
16 *60:18 *635:B 1.19428e-05
17 *60:18 *636:A 3.07986e-05
18 *60:18 *636:B 0.000143226
19 *60:18 *638:A 5.56924e-05
*RES
1 *629:X *60:8 40.2579 
2 *60:8 *60:12 19.4329 
3 *60:12 *60:18 6.25571 
4 *60:18 *634:B 23 
5 *60:18 *639:B 24.5743 
6 *60:12 *635:A 23 
7 *60:8 *631:A 43.365 
*END

*D_NET *61 0.000391219
*CONN
*I *631:B I *D sky130_fd_sc_hd__nand2_1
*I *630:Y O *D sky130_fd_sc_hd__nand2_1
*CAP
1 *631:B 0
2 *630:Y 7.51653e-05
3 *61:8 7.51653e-05
4 *61:8 *159:44 7.64972e-05
5 *3:13 *61:8 0.000164392
*RES
1 *630:Y *61:8 40.2579 
2 *61:8 *631:B 38 
*END

*D_NET *62 0.000881292
*CONN
*I *632:A I *D sky130_fd_sc_hd__nor2_1
*I *631:Y O *D sky130_fd_sc_hd__nand2_1
*CAP
1 *632:A 0
2 *631:Y 0.000243588
3 *62:10 0.000243588
4 *62:10 *143:57 5.41195e-05
5 *672:RESET_B *62:10 0.00019683
6 *49:20 *62:10 0.000143166
*RES
1 *631:Y *62:10 42.4329 
2 *62:10 *632:A 38 
*END

*D_NET *63 0.00113659
*CONN
*I *635:B I *D sky130_fd_sc_hd__nand2_1
*I *634:A I *D sky130_fd_sc_hd__or2_1
*I *633:Y O *D sky130_fd_sc_hd__inv_2
*CAP
1 *635:B 0.000244676
2 *634:A 1.59925e-05
3 *633:Y 0.000109215
4 *63:8 0.000369884
5 *634:A *638:A 5.56279e-05
6 *635:B *636:A 3.22051e-05
7 *635:B *636:B 6.06463e-05
8 *635:B *638:A 7.87147e-05
9 *635:B *66:14 0.000102389
10 *63:8 *66:14 0
11 *59:22 *635:B 0
12 *59:22 *63:8 0
13 *60:18 *634:A 5.52998e-05
14 *60:18 *635:B 1.19428e-05
*RES
1 *633:Y *63:8 39.5536 
2 *63:8 *634:A 38.6214 
3 *63:8 *635:B 43.5307 
*END

*D_NET *64 0.00106496
*CONN
*I *638:A I *D sky130_fd_sc_hd__nand2_1
*I *636:A I *D sky130_fd_sc_hd__nand2_1
*I *634:X O *D sky130_fd_sc_hd__or2_1
*CAP
1 *638:A 0.000198278
2 *636:A 1.31402e-05
3 *634:X 0
4 *64:4 0.000211418
5 *638:A *639:A 0.000188526
6 *638:A *68:10 5.33272e-05
7 *634:A *638:A 5.56279e-05
8 *635:B *636:A 3.22051e-05
9 *635:B *638:A 7.87147e-05
10 *639:B *638:A 0.000147237
11 *60:18 *636:A 3.07986e-05
12 *60:18 *638:A 5.56924e-05
*RES
1 *634:X *64:4 23 
2 *64:4 *636:A 23.6214 
3 *64:4 *638:A 29.3386 
*END

*D_NET *65 0.000348417
*CONN
*I *636:B I *D sky130_fd_sc_hd__nand2_1
*I *635:Y O *D sky130_fd_sc_hd__nand2_1
*CAP
1 *636:B 6.77521e-05
2 *635:Y 6.77521e-05
3 *636:B *66:14 9.03964e-06
4 *635:B *636:B 6.06463e-05
5 *60:18 *636:B 0.000143226
*RES
1 *635:Y *636:B 48.8586 
*END

*D_NET *66 0.00116613
*CONN
*I *637:A I *D sky130_fd_sc_hd__nor2_1
*I *636:Y O *D sky130_fd_sc_hd__nand2_1
*CAP
1 *637:A 1.17588e-05
2 *636:Y 0.000327752
3 *66:14 0.000339511
4 *637:A *82:12 5.56356e-05
5 *66:14 *136:28 0.000262089
6 *635:B *66:14 0.000102389
7 *636:B *66:14 9.03964e-06
8 *59:22 *637:A 5.79559e-05
9 *63:8 *66:14 0
*RES
1 *636:Y *66:14 44.0071 
2 *66:14 *637:A 38.6214 
*END

*D_NET *67 0.000581417
*CONN
*I *640:A I *D sky130_fd_sc_hd__nand2_1
*I *638:Y O *D sky130_fd_sc_hd__nand2_1
*CAP
1 *640:A 0
2 *638:Y 0.000238128
3 *67:10 0.000238128
4 *67:10 *638:B 1.84831e-05
5 *67:10 *639:A 2.45549e-06
6 *67:10 *97:12 9.98069e-06
7 *59:10 *67:10 7.42423e-05
*RES
1 *638:Y *67:10 41.8321 
2 *67:10 *640:A 38 
*END

*D_NET *68 0.00175986
*CONN
*I *642:B I *D sky130_fd_sc_hd__nand2b_1
*I *640:B I *D sky130_fd_sc_hd__nand2_1
*I *639:X O *D sky130_fd_sc_hd__or2_1
*CAP
1 *642:B 0.000295689
2 *640:B 0.000130465
3 *639:X 0.000241776
4 *68:10 0.00066793
5 *640:B *148:18 0.000170183
6 *642:B *644:B 6.39489e-06
7 *642:B *159:52 4.2651e-05
8 *642:B *180:10 1.0092e-05
9 *638:A *68:10 5.33272e-05
10 *59:14 *640:B 0.000141352
*RES
1 *639:X *68:10 41.8321 
2 *68:10 *640:B 41.48 
3 *68:10 *642:B 43.9295 
*END

*D_NET *69 0.000528081
*CONN
*I *641:A I *D sky130_fd_sc_hd__nor2_1
*I *640:Y O *D sky130_fd_sc_hd__nand2_1
*CAP
1 *641:A 8.49438e-05
2 *640:Y 8.49438e-05
3 *641:A *148:18 0.000229395
4 *641:B *641:A 5.55743e-06
5 *59:14 *641:A 7.48505e-05
6 *59:89 *641:A 4.839e-05
*RES
1 *640:Y *641:A 49.0243 
*END

*D_NET *70 0.000219211
*CONN
*I *644:A I *D sky130_fd_sc_hd__nand2_1
*I *642:Y O *D sky130_fd_sc_hd__nand2b_1
*CAP
1 *644:A 9.39198e-05
2 *642:Y 9.39198e-05
3 *644:A *644:B 2.653e-05
4 *644:A *72:8 4.84129e-06
*RES
1 *642:Y *644:A 48.0714 
*END

*D_NET *71 0.00201549
*CONN
*I *648:A I *D sky130_fd_sc_hd__nand2_1
*I *647:B I *D sky130_fd_sc_hd__nor2_1
*I *644:B I *D sky130_fd_sc_hd__nand2_1
*I *643:Y O *D sky130_fd_sc_hd__nand3_1
*CAP
1 *648:A 7.40093e-05
2 *647:B 0
3 *644:B 0.000281186
4 *643:Y 0
5 *71:21 0.000369573
6 *71:4 0.00057675
7 *644:B *180:21 0.000100486
8 *648:A *647:A 5.50186e-05
9 *648:A *74:10 7.95762e-05
10 *71:21 *538:B 9.79925e-05
11 *71:21 *74:10 2.14486e-05
12 *71:21 *76:8 1.01436e-05
13 *71:21 *123:37 0.000251435
14 *71:21 *180:21 4.21921e-05
15 *642:B *644:B 6.39489e-06
16 *644:A *644:B 2.653e-05
17 *59:35 *71:21 2.27534e-05
*RES
1 *643:Y *71:4 23 
2 *71:4 *644:B 27.3293 
3 *71:4 *71:21 35.5929 
4 *71:21 *647:B 23 
5 *71:21 *648:A 25.5686 
*END

*D_NET *72 0.00196945
*CONN
*I *645:A I *D sky130_fd_sc_hd__nor2_1
*I *644:Y O *D sky130_fd_sc_hd__nand2_1
*CAP
1 *645:A 8.48773e-05
2 *644:Y 0.000807896
3 *72:8 0.000892773
4 *72:8 *177:8 1.83545e-05
5 *644:A *72:8 4.84129e-06
6 *659:RESET_B *645:A 2.29192e-05
7 *3:13 *645:A 0.000137788
*RES
1 *644:Y *72:8 48.15 
2 *72:8 *645:A 39.9057 
*END

*D_NET *73 0.000905005
*CONN
*I *648:B I *D sky130_fd_sc_hd__nand2_1
*I *647:A I *D sky130_fd_sc_hd__nor2_1
*I *646:Y O *D sky130_fd_sc_hd__inv_2
*CAP
1 *648:B 0
2 *647:A 0.000100869
3 *646:Y 0.000100428
4 *73:12 0.00026622
5 *73:8 0.000265778
6 *647:A *75:10 1.09834e-05
7 *73:8 *84:10 7.84832e-05
8 *73:12 *75:10 2.10502e-05
9 *73:12 *85:10 6.17437e-06
10 *648:A *647:A 5.50186e-05
*RES
1 *646:Y *73:8 40.2579 
2 *73:8 *73:12 18.0036 
3 *73:12 *647:A 25.5686 
4 *73:12 *648:B 23 
*END

*D_NET *74 0.00301352
*CONN
*I *652:A I *D sky130_fd_sc_hd__nand2_1
*I *651:B I *D sky130_fd_sc_hd__or2_1
*I *649:A I *D sky130_fd_sc_hd__or2b_1
*I *647:Y O *D sky130_fd_sc_hd__nor2_1
*CAP
1 *652:A 3.382e-05
2 *651:B 0
3 *649:A 0
4 *647:Y 0.000171503
5 *74:33 0.000285027
6 *74:25 0.000679043
7 *74:14 0.000439018
8 *74:10 0.000250325
9 *74:10 *75:10 1.94812e-05
10 *74:14 *538:B 2.00768e-05
11 *74:25 *538:A 8.26478e-05
12 *74:25 *538:B 3.32626e-05
13 *74:25 *652:B 3.28357e-06
14 *74:25 *84:10 0.000100477
15 *74:33 *79:10 0.000223692
16 *74:33 *143:114 0
17 *648:A *74:10 7.95762e-05
18 *17:37 *74:33 0.000484545
19 *17:96 *74:33 8.62914e-05
20 *71:21 *74:10 2.14486e-05
*RES
1 *647:Y *74:10 40.7757 
2 *74:10 *74:14 16.0979 
3 *74:14 *649:A 23 
4 *74:14 *74:25 7.20857 
5 *74:25 *74:33 37.6436 
6 *74:33 *651:B 23 
7 *74:25 *652:A 23.6214 
*END

*D_NET *75 0.000481436
*CONN
*I *649:B_N I *D sky130_fd_sc_hd__or2b_1
*I *648:Y O *D sky130_fd_sc_hd__nand2_1
*CAP
1 *649:B_N 0
2 *648:Y 0.000204236
3 *75:10 0.000204236
4 *75:10 *84:10 2.14486e-05
5 *647:A *75:10 1.09834e-05
6 *73:12 *75:10 2.10502e-05
7 *74:10 *75:10 1.94812e-05
*RES
1 *648:Y *75:10 41.3557 
2 *75:10 *649:B_N 38 
*END

*D_NET *76 0.000651492
*CONN
*I *650:A I *D sky130_fd_sc_hd__nor2_1
*I *649:X O *D sky130_fd_sc_hd__or2b_1
*CAP
1 *650:A 0
2 *649:X 0.000232106
3 *76:8 0.000232106
4 *59:35 *76:8 0.000177137
5 *71:21 *76:8 1.01436e-05
*RES
1 *649:X *76:8 43.075 
2 *76:8 *650:A 38 
*END

*D_NET *77 0.000126903
*CONN
*I *653:A I *D sky130_fd_sc_hd__nand2_1
*I *651:X O *D sky130_fd_sc_hd__or2_1
*CAP
1 *653:A 6.74574e-06
2 *651:X 6.74574e-06
3 *653:A *653:B 5.67058e-05
4 *17:37 *653:A 5.67058e-05
*RES
1 *651:X *653:A 46.6214 
*END

*D_NET *78 0.00322696
*CONN
*I *653:B I *D sky130_fd_sc_hd__nand2_1
*I *655:B I *D sky130_fd_sc_hd__xor2_1
*I *652:Y O *D sky130_fd_sc_hd__nand2_1
*CAP
1 *653:B 0.000323699
2 *655:B 0.000431872
3 *652:Y 0.000216923
4 *78:8 0.000972494
5 *653:B *143:114 0.000147807
6 *655:B *80:10 0.000100477
7 *655:B *143:95 0.000117106
8 *655:B *143:101 0.00021739
9 *655:B *143:114 6.13373e-05
10 *655:B *182:27 6.51997e-06
11 *78:8 *652:B 0.000100477
12 *78:8 *182:10 0.000135037
13 *653:A *653:B 5.67058e-05
14 *17:37 *653:B 0.000339111
*RES
1 *652:Y *78:8 41.0036 
2 *78:8 *655:B 47.3629 
3 *78:8 *653:B 45.6643 
*END

*D_NET *79 0.00136698
*CONN
*I *654:A I *D sky130_fd_sc_hd__nor2_1
*I *653:Y O *D sky130_fd_sc_hd__nand2_1
*CAP
1 *654:A 0
2 *653:Y 0.000404432
3 *79:10 0.000404432
4 *79:10 *143:101 1.13812e-05
5 *79:10 *143:114 0.000123859
6 *79:10 *182:27 3.673e-05
7 *17:37 *79:10 0.000162452
8 *74:33 *79:10 0.000223692
*RES
1 *653:Y *79:10 44.815 
2 *79:10 *654:A 38 
*END

*D_NET *80 0.000998082
*CONN
*I *656:A I *D sky130_fd_sc_hd__nor2_1
*I *655:X O *D sky130_fd_sc_hd__xor2_1
*CAP
1 *656:A 0
2 *655:X 0.000264688
3 *80:10 0.000264688
4 *80:10 *182:27 5.75756e-06
5 *654:B *80:10 5.75756e-06
6 *655:B *80:10 0.000100477
7 *31:8 *80:10 0.000279219
8 *59:102 *80:10 7.7495e-05
*RES
1 *655:X *80:10 44.7943 
2 *80:10 *656:A 38 
*END

*D_NET *81 0.00203376
*CONN
*I *537:A I *D sky130_fd_sc_hd__nand2_1
*I *535:Y O *D sky130_fd_sc_hd__nor2_1
*CAP
1 *537:A 0.000256154
2 *535:Y 5.3805e-05
3 *81:8 0.000309959
4 *537:A *581:B 0.000438468
5 *537:A *82:22 7.57118e-05
6 *537:A *83:10 5.37348e-06
7 *537:A *143:16 5.50049e-05
8 *81:8 *581:B 0.000132034
9 *81:8 *98:10 0.000140958
10 *17:106 *537:A 0.000566289
*RES
1 *535:Y *81:8 39.9057 
2 *81:8 *537:A 46.7414 
*END

*D_NET *82 0.0043736
*CONN
*I *580:A I *D sky130_fd_sc_hd__nor2_1
*I *537:B I *D sky130_fd_sc_hd__nand2_1
*I *536:Y O *D sky130_fd_sc_hd__nand2_1
*CAP
1 *580:A 0
2 *537:B 0
3 *536:Y 0.000867756
4 *82:22 0.000397791
5 *82:12 0.00126555
6 *82:12 *535:A 2.93104e-06
7 *82:12 *535:B 0.000168544
8 *82:12 *536:A 5.79559e-05
9 *82:12 *579:A 7.44161e-06
10 *82:12 *94:8 0.000144494
11 *82:12 *122:20 2.64616e-05
12 *82:12 *177:14 5.56279e-05
13 *82:12 *178:34 5.56356e-05
14 *82:12 *178:45 0.000378333
15 *82:12 *179:14 2.9853e-05
16 *82:22 *581:B 0.000313255
17 *82:22 *122:20 9.28078e-06
18 *82:22 *124:10 0.000139352
19 *82:22 *148:18 0
20 *82:22 *179:14 3.70187e-05
21 *537:A *82:22 7.57118e-05
22 *637:A *82:12 5.56356e-05
23 *59:10 *82:22 0.000121143
24 *59:22 *82:12 0.00016383
*RES
1 *536:Y *82:12 39.4057 
2 *82:12 *82:22 39.0729 
3 *82:22 *537:B 23 
4 *82:12 *580:A 23 
*END

*D_NET *83 0.00101045
*CONN
*I *541:A I *D sky130_fd_sc_hd__nor2_1
*I *577:A1 I *D sky130_fd_sc_hd__o21bai_1
*I *537:Y O *D sky130_fd_sc_hd__nand2_1
*CAP
1 *541:A 0
2 *577:A1 0.000160936
3 *537:Y 0.000244444
4 *83:10 0.00040538
5 *577:A1 *87:44 0
6 *577:A1 *125:16 0
7 *577:A1 *129:10 0.000194318
8 *83:10 *86:12 0
9 *537:A *83:10 5.37348e-06
*RES
1 *537:Y *83:10 41.48 
2 *83:10 *577:A1 41.3143 
3 *83:10 *541:A 38 
*END

*D_NET *84 0.00175562
*CONN
*I *540:A I *D sky130_fd_sc_hd__nand2_1
*I *552:A I *D sky130_fd_sc_hd__nand3_1
*I *538:Y O *D sky130_fd_sc_hd__nor2_1
*CAP
1 *540:A 0
2 *552:A 0.00010478
3 *538:Y 0.000462952
4 *84:12 0.00010478
5 *84:10 0.000462952
6 *552:A *552:B 0.00011671
7 *552:A *97:12 0.000116456
8 *84:10 *551:A 1.13812e-05
9 *84:10 *85:10 0.000175202
10 *73:8 *84:10 7.84832e-05
11 *74:25 *84:10 0.000100477
12 *75:10 *84:10 2.14486e-05
*RES
1 *538:Y *84:10 46.99 
2 *84:10 *84:12 15 
3 *84:12 *552:A 26.045 
4 *84:12 *540:A 23 
*END

*D_NET *85 0.00219705
*CONN
*I *552:B I *D sky130_fd_sc_hd__nand3_1
*I *540:B I *D sky130_fd_sc_hd__nand2_1
*I *539:Y O *D sky130_fd_sc_hd__nor2_1
*CAP
1 *552:B 0.000199308
2 *540:B 0
3 *539:Y 0.000653633
4 *85:12 0.000199308
5 *85:10 0.000653633
6 *552:B *86:10 2.10502e-05
7 *552:B *97:12 2.30289e-05
8 *85:10 *148:18 8.82154e-05
9 *85:10 *182:27 3.26241e-05
10 *552:A *552:B 0.00011671
11 *35:10 *85:10 2.81612e-05
12 *73:12 *85:10 6.17437e-06
13 *84:10 *85:10 0.000175202
*RES
1 *539:Y *85:10 48.4607 
2 *85:10 *85:12 15 
3 *85:12 *540:B 23 
4 *85:12 *552:B 27.4743 
*END

*D_NET *86 0.00309551
*CONN
*I *581:A I *D sky130_fd_sc_hd__nor2_1
*I *541:B I *D sky130_fd_sc_hd__nor2_1
*I *577:A2 I *D sky130_fd_sc_hd__o21bai_1
*I *540:Y O *D sky130_fd_sc_hd__nand2_1
*CAP
1 *581:A 0
2 *541:B 9.44227e-05
3 *577:A2 0.000199337
4 *540:Y 0.000453231
5 *86:12 0.000507612
6 *86:10 0.000667083
7 *541:B *87:6 2.18506e-05
8 *541:B *87:14 4.67488e-05
9 *541:B *87:44 5.50106e-05
10 *541:B *125:8 4.28695e-05
11 *541:B *125:31 5.3304e-05
12 *541:B *129:10 5.67058e-05
13 *577:A2 *577:B1_N 1.14154e-05
14 *577:A2 *578:A 1.91381e-05
15 *577:A2 *618:A2 2.93747e-05
16 *577:A2 *119:12 0.000122031
17 *577:A2 *125:16 0.000192087
18 *577:A2 *148:10 0
19 *577:A2 *148:18 5.93381e-05
20 *86:10 *148:18 1.06693e-05
21 *86:12 *125:16 3.47781e-05
22 *86:12 *148:18 5.83085e-05
23 *552:B *86:10 2.10502e-05
24 *661:D *86:10 0
25 *17:96 *86:10 0.00011387
26 *17:106 *86:10 0.000225275
27 *83:10 *86:12 0
*RES
1 *540:Y *86:10 46.0786 
2 *86:10 *86:12 2.96214 
3 *86:12 *577:A2 43.3029 
4 *86:12 *541:B 40.5479 
5 *86:10 *581:A 38 
*END

*D_NET *87 0.00490827
*CONN
*I *586:B I *D sky130_fd_sc_hd__nor2_1
*I *616:C1 I *D sky130_fd_sc_hd__o211a_1
*I *547:A I *D sky130_fd_sc_hd__nand2_1
*I *541:Y O *D sky130_fd_sc_hd__nor2_1
*CAP
1 *586:B 0
2 *616:C1 0
3 *547:A 0
4 *541:Y 6.1379e-05
5 *87:44 7.15447e-05
6 *87:26 0.000377198
7 *87:16 0.00124621
8 *87:14 0.00137794
9 *87:6 0.000641852
10 *87:6 *129:10 5.67058e-05
11 *87:14 *124:10 0
12 *87:14 *125:31 0.000135465
13 *87:14 *143:16 1.32289e-05
14 *87:16 *616:B1 0.000212703
15 *87:26 *616:B1 5.56356e-05
16 *87:26 *92:24 0.000121995
17 *87:44 *125:8 5.50106e-05
18 *87:44 *125:16 8.72173e-05
19 *541:B *87:6 2.18506e-05
20 *541:B *87:14 4.67488e-05
21 *541:B *87:44 5.50106e-05
22 *577:A1 *87:44 0
23 *46:27 *87:26 0.000185428
24 *59:10 *87:14 8.51432e-05
*RES
1 *541:Y *87:6 24.0979 
2 *87:6 *87:14 37.6436 
3 *87:14 *87:16 14.9143 
4 *87:16 *87:26 37.6643 
5 *87:26 *547:A 23 
6 *87:16 *616:C1 23 
7 *87:6 *87:44 31.8229 
8 *87:44 *586:B 23 
*END

*D_NET *88 0.00894687
*CONN
*I *543:B I *D sky130_fd_sc_hd__nor2_1
*I *591:B1 I *D sky130_fd_sc_hd__o311a_1
*I *598:A I *D sky130_fd_sc_hd__nand2_1
*I *606:B1 I *D sky130_fd_sc_hd__o21a_1
*I *570:B I *D sky130_fd_sc_hd__nor2_1
*I *558:A I *D sky130_fd_sc_hd__nor2_1
*I *542:Y O *D sky130_fd_sc_hd__inv_6
*CAP
1 *543:B 0.0003028
2 *591:B1 0.00023751
3 *598:A 1.93206e-05
4 *606:B1 5.68368e-05
5 *570:B 0.000166928
6 *558:A 0
7 *542:Y 0
8 *88:68 0.000540309
9 *88:66 0.000438458
10 *88:49 0.000940499
11 *88:16 0.00112581
12 *88:6 0.00118034
13 *88:4 0.000647338
14 *543:B *560:B1 0.00022052
15 *543:B *89:8 1.13812e-05
16 *543:B *90:92 1.33874e-05
17 *543:B *101:29 0.000129647
18 *543:B *113:8 7.38401e-05
19 *543:B *144:87 0.000143715
20 *543:B *146:98 2.1707e-05
21 *570:B *90:72 5.56279e-05
22 *570:B *102:16 5.19894e-05
23 *570:B *114:8 6.17437e-06
24 *570:B *156:10 7.71928e-05
25 *591:B1 *560:B1 8.57485e-05
26 *591:B1 *591:C1 5.3304e-05
27 *591:B1 *603:A1 5.3304e-05
28 *591:B1 *113:8 1.94812e-05
29 *591:B1 *144:69 6.74292e-05
30 *598:A *144:10 3.23857e-06
31 *598:A *144:69 3.28357e-06
32 *88:6 *606:A2 0.000146822
33 *88:16 *90:72 0
34 *88:16 *102:16 0
35 *88:49 *606:A2 0.000306509
36 *88:49 *105:8 9.64943e-05
37 *88:49 *144:6 5.79559e-05
38 *88:49 *144:10 4.65096e-05
39 *88:49 *144:69 2.64616e-05
40 *88:66 *90:10 3.91382e-05
41 *88:66 *105:8 1.24376e-05
42 *88:66 *141:18 7.48608e-05
43 *88:66 *144:69 0.00033897
44 *603:A2 *591:B1 1.9054e-05
45 *603:A2 *88:66 0.000360958
46 *24:10 *88:16 1.56662e-06
47 *26:10 *88:66 4.96024e-05
48 *44:10 *88:66 4.73379e-05
49 *46:10 *88:16 0.000375375
50 *46:27 *88:16 0.000199701
*RES
1 *542:Y *88:4 23 
2 *88:4 *88:6 2.52714 
3 *88:6 *88:16 48.6636 
4 *88:16 *558:A 23 
5 *88:16 *570:B 26.9979 
6 *88:6 *606:B1 24.2014 
7 *88:4 *88:49 38.6171 
8 *88:49 *598:A 23.4971 
9 *88:49 *88:66 39.4664 
10 *88:66 *88:68 15 
11 *88:68 *591:B1 42.7229 
12 *88:68 *543:B 45.25 
*END

*D_NET *89 0.00308992
*CONN
*I *588:A I *D sky130_fd_sc_hd__and2_1
*I *617:A I *D sky130_fd_sc_hd__nand2_1
*I *545:A I *D sky130_fd_sc_hd__nand2_1
*I *543:Y O *D sky130_fd_sc_hd__nor2_1
*CAP
1 *588:A 0
2 *617:A 0.00034846
3 *545:A 0
4 *543:Y 0.000109111
5 *89:16 0.00072262
6 *89:12 0.000466766
7 *89:8 0.000201717
8 *617:A *618:A1 0.000139352
9 *617:A *91:12 2.33476e-05
10 *617:A *124:16 4.62967e-05
11 *617:A *125:16 2.96323e-05
12 *617:A *125:31 8.0163e-06
13 *89:8 *90:92 0
14 *89:8 *141:18 1.17152e-05
15 *89:8 *144:87 1.13812e-05
16 *89:8 *144:104 0.000163243
17 *89:12 *611:B 7.44257e-05
18 *89:12 *131:8 3.75171e-05
19 *89:16 *592:A 0
20 *89:16 *90:92 0
21 *89:16 *124:16 6.07611e-06
22 *89:16 *127:10 0
23 *89:16 *130:23 1.58805e-05
24 *543:B *89:8 1.13812e-05
25 *618:B1 *617:A 1.67458e-05
26 *627:A *89:12 0.000141954
27 *36:10 *89:16 0
28 *45:8 *89:12 0.000354122
29 *55:10 *89:8 0.000138718
30 *59:10 *89:8 1.14452e-05
*RES
1 *543:Y *89:8 40.9621 
2 *89:8 *89:12 18.9564 
3 *89:12 *89:16 21.1314 
4 *89:16 *545:A 38 
5 *89:16 *617:A 43.7586 
6 *89:12 *588:A 23 
*END

*D_NET *90 0.0135707
*CONN
*I *618:A1 I *D sky130_fd_sc_hd__a211oi_1
*I *545:B I *D sky130_fd_sc_hd__nand2_1
*I *591:C1 I *D sky130_fd_sc_hd__o311a_1
*I *570:A I *D sky130_fd_sc_hd__nor2_1
*I *609:A2 I *D sky130_fd_sc_hd__a21oi_1
*I *598:B I *D sky130_fd_sc_hd__nand2_1
*I *564:B I *D sky130_fd_sc_hd__nor2_1
*I *606:A2 I *D sky130_fd_sc_hd__o21a_1
*I *544:X O *D sky130_fd_sc_hd__clkbuf_2
*CAP
1 *618:A1 0.000209356
2 *545:B 6.86807e-05
3 *591:C1 0.000136996
4 *570:A 0
5 *609:A2 0
6 *598:B 0
7 *564:B 0.000183892
8 *606:A2 0.000250241
9 *544:X 0.000194723
10 *90:92 0.000952309
11 *90:79 0.000811269
12 *90:72 0.000673708
13 *90:49 0.00155956
14 *90:16 0.000560787
15 *90:12 0.000260404
16 *90:10 0.00157375
17 *90:6 0.000748866
18 *545:B *583:A 4.46576e-05
19 *545:B *92:24 1.41077e-05
20 *564:B *564:A 0.000269806
21 *564:B *567:A 3.34247e-05
22 *564:B *569:A 1.22308e-05
23 *564:B *111:10 0.000182832
24 *591:C1 *134:10 5.54823e-05
25 *591:C1 *144:69 5.58003e-05
26 *591:C1 *146:98 0.000246023
27 *606:A2 *564:A 6.97831e-05
28 *606:A2 *606:A1 0.000584301
29 *618:A1 *124:16 6.68793e-05
30 *618:A1 *148:10 2.93845e-05
31 *90:6 *142:6 3.26241e-05
32 *90:10 *141:18 0.000145161
33 *90:12 *105:14 1.79572e-05
34 *90:16 *105:14 9.1813e-05
35 *90:49 *609:A1 1.12863e-05
36 *90:49 *105:36 3.21898e-05
37 *90:49 *136:12 8.02575e-06
38 *90:49 *144:31 6.73801e-06
39 *90:49 *146:29 0.00046831
40 *90:49 *146:33 0.000193944
41 *90:72 *571:A 0.000222104
42 *90:72 *609:A1 2.42715e-05
43 *90:72 *610:A 0.000166996
44 *90:72 *101:29 0
45 *90:72 *102:16 0.000374698
46 *90:72 *144:104 0
47 *90:92 *594:B 0.000194327
48 *90:92 *124:16 1.83564e-05
49 *90:92 *130:23 0
50 *90:92 *131:25 0.000219882
51 *90:92 *134:10 9.53769e-05
52 *90:92 *146:98 0.000306021
53 *543:B *90:92 1.33874e-05
54 *570:B *90:72 5.56279e-05
55 *591:B1 *591:C1 5.3304e-05
56 *617:A *618:A1 0.000139352
57 *618:B1 *618:A1 1.14762e-05
58 *26:10 *90:16 0
59 *36:10 *545:B 5.50049e-05
60 *40:12 *90:12 0.000196318
61 *40:12 *90:49 2.53488e-05
62 *44:10 *90:49 0
63 *46:27 *90:72 0
64 *55:10 *90:92 4.90994e-05
65 *59:10 *618:A1 0
66 *59:10 *90:92 0
67 *88:6 *606:A2 0.000146822
68 *88:16 *90:72 0
69 *88:49 *606:A2 0.000306509
70 *88:66 *90:10 3.91382e-05
71 *89:8 *90:92 0
72 *89:16 *90:92 0
*RES
1 *544:X *90:6 26.0036 
2 *90:6 *90:10 23.7207 
3 *90:10 *90:12 3.31429 
4 *90:12 *90:16 17.61 
5 *90:16 *606:A2 31.2443 
6 *90:16 *564:B 28.2821 
7 *90:12 *598:B 38 
8 *90:10 *90:49 20.1849 
9 *90:49 *609:A2 38 
10 *90:49 *90:72 28.63 
11 *90:72 *570:A 23 
12 *90:6 *90:79 15 
13 *90:79 *591:C1 41.9357 
14 *90:79 *90:92 14.2307 
15 *90:92 *545:B 39.595 
16 *90:92 *618:A1 42.5779 
*END

*D_NET *91 0.000953835
*CONN
*I *546:A I *D sky130_fd_sc_hd__inv_2
*I *545:Y O *D sky130_fd_sc_hd__nand2_1
*CAP
1 *546:A 8.48803e-06
2 *545:Y 0.000421852
3 *91:12 0.00043034
4 *546:A *121:10 2.33476e-05
5 *546:A *129:10 2.33476e-05
6 *91:12 *124:16 2.31116e-05
7 *617:A *91:12 2.33476e-05
*RES
1 *545:Y *91:12 47.1499 
2 *91:12 *546:A 46.3211 
*END

*D_NET *92 0.00611856
*CONN
*I *578:B I *D sky130_fd_sc_hd__nand2_1
*I *583:C I *D sky130_fd_sc_hd__nand3_1
*I *547:B I *D sky130_fd_sc_hd__nand2_1
*I *614:A2 I *D sky130_fd_sc_hd__a21o_1
*I *546:Y O *D sky130_fd_sc_hd__inv_2
*CAP
1 *578:B 0
2 *583:C 0
3 *547:B 3.58117e-05
4 *614:A2 6.64027e-05
5 *546:Y 0
6 *92:55 0.000286092
7 *92:24 0.0014687
8 *92:16 0.00170267
9 *92:4 0.000622274
10 *614:A2 *615:A1 3.70094e-05
11 *614:A2 *93:8 0.000131744
12 *92:16 *121:10 7.23898e-05
13 *92:16 *125:16 9.55606e-05
14 *92:16 *126:18 2.50585e-05
15 *92:24 *554:A 0.000101883
16 *92:24 *583:A 0.000222937
17 *92:24 *100:10 0.000402034
18 *92:24 *125:16 5.67058e-05
19 *92:24 *126:18 3.54283e-05
20 *92:55 *129:10 0
21 *545:B *92:24 1.41077e-05
22 *27:14 *547:B 5.24393e-05
23 *27:14 *614:A2 0.000196549
24 *36:10 *92:16 6.89897e-05
25 *36:10 *92:24 3.10889e-05
26 *46:27 *614:A2 0
27 *46:27 *92:24 0.000270682
28 *87:26 *92:24 0.000121995
*RES
1 *546:Y *92:4 23 
2 *92:4 *92:16 35.4271 
3 *92:16 *92:24 41.8664 
4 *92:24 *614:A2 40.61 
5 *92:24 *547:B 38.8493 
6 *92:16 *583:C 23 
7 *92:4 *92:55 33.9564 
8 *92:55 *578:B 23 
*END

*D_NET *93 0.00232169
*CONN
*I *555:A I *D sky130_fd_sc_hd__nor2_1
*I *615:A1 I *D sky130_fd_sc_hd__o21ai_1
*I *547:Y O *D sky130_fd_sc_hd__nand2_1
*CAP
1 *555:A 0.000269194
2 *615:A1 0.000255111
3 *547:Y 4.38123e-05
4 *93:8 0.000568118
5 *555:A *555:B 0.000152349
6 *555:A *138:10 1.76557e-05
7 *615:A1 *615:A2 0.000329473
8 *615:A1 *100:10 7.70737e-05
9 *93:8 *100:10 0.000141888
10 *614:A2 *615:A1 3.70094e-05
11 *614:A2 *93:8 0.000131744
12 *614:B1 *555:A 9.4713e-05
13 *27:14 *615:A1 0.000194346
14 *47:10 *615:A1 9.20311e-06
15 *48:16 *615:A1 0
*RES
1 *547:Y *93:8 39.9057 
2 *93:8 *615:A1 45.3743 
3 *93:8 *555:A 43.4064 
*END

*D_NET *94 0.00434458
*CONN
*I *629:A I *D sky130_fd_sc_hd__or2_1
*I *630:B I *D sky130_fd_sc_hd__nand2_1
*I *616:A1 I *D sky130_fd_sc_hd__o211a_1
*I *550:A I *D sky130_fd_sc_hd__nand2_1
*I *548:Y O *D sky130_fd_sc_hd__inv_2
*CAP
1 *629:A 0
2 *630:B 0.00021203
3 *616:A1 0.000224455
4 *550:A 0.000243267
5 *548:Y 0.000378536
6 *94:12 0.000644151
7 *94:10 0.000388458
8 *94:8 0.000378536
9 *550:A *550:B 5.47983e-06
10 *550:A *712:A 5.58012e-05
11 *550:A *143:33 9.58714e-05
12 *550:A *159:10 8.68427e-06
13 *550:A *176:66 0.000274237
14 *616:A1 *616:A2 0.000167344
15 *616:A1 *143:33 3.47781e-05
16 *616:A1 *143:41 0
17 *616:A1 *156:10 0
18 *630:B *143:57 0.000162418
19 *630:B *159:27 2.55642e-05
20 *94:8 *536:B 6.61835e-05
21 *94:12 *143:33 0.000185755
22 *94:12 *143:57 0.000236614
23 *94:12 *159:27 0.000323831
24 *621:B *94:8 0
25 *3:13 *630:B 4.35681e-06
26 *27:8 *616:A1 7.53384e-06
27 *49:20 *616:A1 0
28 *49:20 *94:12 0
29 *51:10 *550:A 5.50049e-05
30 *51:10 *94:12 2.1199e-05
31 *52:23 *630:B 0
32 *82:12 *94:8 0.000144494
*RES
1 *548:Y *94:8 28.4064 
2 *94:8 *94:10 15 
3 *94:10 *94:12 5.77929 
4 *94:12 *550:A 43.5514 
5 *94:12 *616:A1 43.2407 
6 *94:10 *630:B 41.8321 
7 *94:8 *629:A 23 
*END

*D_NET *95 0.000236489
*CONN
*I *550:B I *D sky130_fd_sc_hd__nand2_1
*I *549:Y O *D sky130_fd_sc_hd__inv_2
*CAP
1 *550:B 6.90114e-05
2 *549:Y 6.90114e-05
3 *550:B *712:A 1.24376e-05
4 *550:B *96:8 5.40876e-05
5 *550:B *99:10 2.64616e-05
6 *550:A *550:B 5.47983e-06
*RES
1 *549:Y *550:B 47.595 
*END

*D_NET *96 0.00119488
*CONN
*I *585:A2 I *D sky130_fd_sc_hd__a21oi_1
*I *553:B I *D sky130_fd_sc_hd__or3_1
*I *550:Y O *D sky130_fd_sc_hd__nand2_1
*CAP
1 *585:A2 0
2 *553:B 0.000103857
3 *550:Y 0.000343972
4 *96:8 0.000447829
5 *96:8 *712:A 1.46205e-05
6 *96:8 *98:26 6.6426e-05
7 *96:8 *99:10 6.40235e-05
8 *96:8 *176:66 0.000100061
9 *550:B *96:8 5.40876e-05
*RES
1 *550:Y *96:8 30.3121 
2 *96:8 *553:B 24.8229 
3 *96:8 *585:A2 23 
*END

*D_NET *97 0.000644755
*CONN
*I *552:C I *D sky130_fd_sc_hd__nand3_1
*I *638:B I *D sky130_fd_sc_hd__nand2_1
*I *551:Y O *D sky130_fd_sc_hd__inv_2
*CAP
1 *552:C 0
2 *638:B 2.62252e-05
3 *551:Y 0.000174134
4 *97:12 0.000200359
5 *638:B *98:10 2.02872e-05
6 *97:12 *98:10 5.58003e-05
7 *552:A *97:12 0.000116456
8 *552:B *97:12 2.30289e-05
9 *67:10 *638:B 1.84831e-05
10 *67:10 *97:12 9.98069e-06
*RES
1 *551:Y *97:12 26.6664 
2 *97:12 *638:B 23.6214 
3 *97:12 *552:C 23 
*END

*D_NET *98 0.00249312
*CONN
*I *585:B1 I *D sky130_fd_sc_hd__a21oi_1
*I *553:C I *D sky130_fd_sc_hd__or3_1
*I *552:Y O *D sky130_fd_sc_hd__nand3_1
*CAP
1 *585:B1 0
2 *553:C 0
3 *552:Y 0.000406095
4 *98:26 0.000204883
5 *98:14 0.00034433
6 *98:10 0.000545541
7 *98:10 *581:B 4.99753e-06
8 *98:10 *639:A 0.000120421
9 *98:10 *122:8 0.000102391
10 *98:10 *123:37 0.000182331
11 *98:10 *143:16 7.03766e-05
12 *98:14 *141:33 0.000187129
13 *98:26 *585:A1 1.16659e-05
14 *98:26 *178:8 2.94915e-05
15 *638:B *98:10 2.02872e-05
16 *59:10 *98:10 0
17 *81:8 *98:10 0.000140958
18 *96:8 *98:26 6.6426e-05
19 *97:12 *98:10 5.58003e-05
*RES
1 *552:Y *98:10 46.2857 
2 *98:10 *98:14 18.0036 
3 *98:14 *98:26 33.5421 
4 *98:26 *553:C 23 
5 *98:14 *585:B1 23 
*END

*D_NET *99 0.00181051
*CONN
*I *554:A I *D sky130_fd_sc_hd__inv_2
*I *553:X O *D sky130_fd_sc_hd__or3_1
*CAP
1 *554:A 9.66768e-05
2 *553:X 0.000392861
3 *99:10 0.000489537
4 *99:10 *616:B1 0.000167452
5 *99:10 *136:28 0.000125339
6 *99:10 *156:10 0.000346271
7 *550:B *99:10 2.64616e-05
8 *92:24 *554:A 0.000101883
9 *96:8 *99:10 6.40235e-05
*RES
1 *553:X *99:10 46.2029 
2 *99:10 *554:A 40.0507 
*END

*D_NET *100 0.00346528
*CONN
*I *614:A1 I *D sky130_fd_sc_hd__a21o_1
*I *555:B I *D sky130_fd_sc_hd__nor2_1
*I *615:A2 I *D sky130_fd_sc_hd__o21ai_1
*I *554:Y O *D sky130_fd_sc_hd__inv_2
*CAP
1 *614:A1 0
2 *555:B 0.000207765
3 *615:A2 0.000234241
4 *554:Y 0.000397392
5 *100:25 0.000313912
6 *100:10 0.000737779
7 *555:B *138:10 2.93747e-05
8 *555:A *555:B 0.000152349
9 *614:B1 *555:B 0.00013501
10 *614:B1 *615:A2 0.000105062
11 *614:B1 *100:10 1.58805e-05
12 *614:B1 *100:25 0.000137651
13 *615:A1 *615:A2 0.000329473
14 *615:A1 *100:10 7.70737e-05
15 *46:27 *100:10 0
16 *47:10 *615:A2 4.08641e-05
17 *48:16 *615:A2 7.53384e-06
18 *92:24 *100:10 0.000402034
19 *93:8 *100:10 0.000141888
*RES
1 *554:Y *100:10 45.395 
2 *100:10 *615:A2 43.1164 
3 *100:10 *100:25 16.5743 
4 *100:25 *555:B 26.9979 
5 *100:25 *614:A1 23 
*END

*D_NET *101 0.00484969
*CONN
*I *557:A I *D sky130_fd_sc_hd__inv_2
*I *610:B I *D sky130_fd_sc_hd__nor2_1
*I *560:B1 I *D sky130_fd_sc_hd__o21a_1
*I *556:Y O *D sky130_fd_sc_hd__nand2_1
*CAP
1 *557:A 0
2 *610:B 0.000125287
3 *560:B1 0.000264371
4 *556:Y 0
5 *101:33 0.000136132
6 *101:29 0.00089889
7 *101:6 0.00115242
8 *560:B1 *569:B 6.25829e-05
9 *560:B1 *603:A1 0.000187781
10 *560:B1 *146:98 0.000275828
11 *610:B *573:A 5.79559e-05
12 *610:B *102:16 0.00011135
13 *101:29 *572:A 0.000123799
14 *101:29 *572:B 1.16455e-05
15 *101:29 *601:B 0.000224411
16 *101:29 *625:C 1.35999e-05
17 *101:29 *115:16 3.61856e-05
18 *101:29 *116:8 2.83509e-05
19 *101:29 *117:10 8.57577e-05
20 *101:29 *117:14 2.193e-05
21 *101:29 *146:98 6.35028e-05
22 *101:33 *573:A 5.56279e-05
23 *543:B *560:B1 0.00022052
24 *543:B *101:29 0.000129647
25 *591:B1 *560:B1 8.57485e-05
26 *626:A *610:B 0.0002778
27 *626:A *101:33 4.44329e-05
28 *47:10 *610:B 7.51453e-06
29 *57:10 *101:29 0.000146618
30 *90:72 *101:29 0
*RES
1 *556:Y *101:6 38 
2 *101:6 *560:B1 45.8921 
3 *101:6 *101:29 44.355 
4 *101:29 *101:33 15.6214 
5 *101:33 *610:B 27.4329 
6 *101:33 *557:A 23 
*END

*D_NET *102 0.00225294
*CONN
*I *573:A I *D sky130_fd_sc_hd__nand2_1
*I *558:B I *D sky130_fd_sc_hd__nor2_1
*I *557:Y O *D sky130_fd_sc_hd__inv_2
*CAP
1 *573:A 0.00018652
2 *558:B 0
3 *557:Y 0
4 *102:16 0.000521269
5 *102:4 0.000707789
6 *573:A *117:10 1.21972e-05
7 *570:B *102:16 5.19894e-05
8 *610:B *573:A 5.79559e-05
9 *610:B *102:16 0.00011135
10 *626:A *573:A 7.6764e-05
11 *58:10 *573:A 9.67842e-05
12 *88:16 *102:16 0
13 *90:72 *102:16 0.000374698
14 *101:33 *573:A 5.56279e-05
*RES
1 *557:Y *102:4 23 
2 *102:4 *102:16 39.9221 
3 *102:16 *558:B 23 
4 *102:4 *573:A 27.35 
*END

*D_NET *103 0.00154109
*CONN
*I *591:A3 I *D sky130_fd_sc_hd__o311a_1
*I *560:A2 I *D sky130_fd_sc_hd__o21a_1
*I *599:A I *D sky130_fd_sc_hd__nand2_1
*I *559:Y O *D sky130_fd_sc_hd__inv_2
*CAP
1 *591:A3 7.51836e-05
2 *560:A2 0.000105154
3 *599:A 7.49911e-05
4 *559:Y 0
5 *103:17 0.000371486
6 *103:4 0.000266139
7 *560:A2 *112:19 0.000140259
8 *591:A3 *146:98 2.48075e-05
9 *599:A *602:C 0.000198545
10 *103:17 *146:98 2.29835e-05
11 *103:17 *188:27 0
12 *41:10 *599:A 8.1796e-05
13 *41:10 *103:17 0.000138718
14 *42:10 *591:A3 3.6608e-05
15 *42:10 *103:17 4.41821e-06
*RES
1 *559:Y *103:4 23 
2 *103:4 *599:A 25.9 
3 *103:4 *103:17 17.9621 
4 *103:17 *560:A2 39.5743 
5 *103:17 *591:A3 39.5536 
*END

*D_NET *104 0.00065303
*CONN
*I *567:A I *D sky130_fd_sc_hd__nand2_1
*I *560:X O *D sky130_fd_sc_hd__o21a_1
*CAP
1 *567:A 0.000132187
2 *560:X 0.000132187
3 *567:A *564:A 4.47928e-05
4 *567:A *569:B 5.67058e-05
5 *567:A *600:B 0.00014196
6 *567:A *108:6 9.84794e-05
7 *567:A *111:10 1.32939e-05
8 *564:B *567:A 3.34247e-05
*RES
1 *560:X *567:A 49.9771 
*END

*D_NET *105 0.00401424
*CONN
*I *624:B I *D sky130_fd_sc_hd__nand2_1
*I *609:B1 I *D sky130_fd_sc_hd__a21oi_1
*I *602:B I *D sky130_fd_sc_hd__nand3_1
*I *563:A I *D sky130_fd_sc_hd__nand2_1
*I *561:Y O *D sky130_fd_sc_hd__inv_2
*CAP
1 *624:B 0
2 *609:B1 4.14783e-05
3 *602:B 0.000114629
4 *563:A 2.34823e-05
5 *561:Y 8.46309e-05
6 *105:36 0.000513035
7 *105:14 0.000531213
8 *105:8 0.000949289
9 *563:A *602:C 0
10 *563:A *107:8 0
11 *602:B *107:8 9.00923e-05
12 *609:B1 *607:A 9.79925e-05
13 *105:14 *563:B 0.00010018
14 *105:14 *606:A1 0.000189157
15 *105:14 *107:8 3.22879e-05
16 *105:14 *110:10 0
17 *105:14 *144:31 8.58779e-05
18 *105:36 *607:A 1.6458e-05
19 *105:36 *624:A 2.99918e-05
20 *105:36 *116:8 2.02872e-05
21 *105:36 *118:6 0.000275472
22 *105:36 *144:31 0.000282732
23 *26:10 *105:14 0
24 *40:12 *105:14 1.0092e-05
25 *40:12 *105:36 0.000221667
26 *40:22 *609:B1 5.3304e-05
27 *88:49 *105:8 9.64943e-05
28 *88:66 *105:8 1.24376e-05
29 *90:12 *105:14 1.79572e-05
30 *90:16 *105:14 9.1813e-05
31 *90:49 *105:36 3.21898e-05
*RES
1 *561:Y *105:8 39.0979 
2 *105:8 *105:14 23.1821 
3 *105:14 *563:A 23.4971 
4 *105:14 *602:B 25.0507 
5 *105:8 *105:36 24.6529 
6 *105:36 *609:B1 24.0979 
7 *105:36 *624:B 23 
*END

*D_NET *106 0.000492515
*CONN
*I *563:B I *D sky130_fd_sc_hd__nand2_1
*I *562:Y O *D sky130_fd_sc_hd__inv_2
*CAP
1 *563:B 6.84495e-05
2 *562:Y 0.000127718
3 *106:8 0.000196167
4 *105:14 *563:B 0.00010018
*RES
1 *562:Y *106:8 40.2579 
2 *106:8 *563:B 39.5743 
*END

*D_NET *107 0.000676313
*CONN
*I *566:A I *D sky130_fd_sc_hd__nand3_1
*I *563:Y O *D sky130_fd_sc_hd__nand2_1
*CAP
1 *566:A 0
2 *563:Y 0.000152302
3 *107:8 0.000152302
4 *107:8 *602:C 2.30292e-05
5 *107:8 *110:10 0.0002263
6 *563:A *107:8 0
7 *602:B *107:8 9.00923e-05
8 *105:14 *107:8 3.22879e-05
*RES
1 *563:Y *107:8 27.4536 
2 *107:8 *566:A 23 
*END

*D_NET *108 0.00138435
*CONN
*I *600:B I *D sky130_fd_sc_hd__nand3_1
*I *566:B I *D sky130_fd_sc_hd__nand3_1
*I *564:Y O *D sky130_fd_sc_hd__nor2_1
*CAP
1 *600:B 0.00033995
2 *566:B 0
3 *564:Y 6.94194e-05
4 *108:12 9.32217e-05
5 *108:6 0.000502591
6 *600:B *569:B 2.4754e-05
7 *600:B *112:19 5.37896e-05
8 *600:B *146:98 3.22879e-05
9 *567:A *600:B 0.00014196
10 *567:A *108:6 9.84794e-05
11 *26:10 *108:12 0
12 *43:8 *108:12 2.79004e-05
*RES
1 *564:Y *108:6 24.0979 
2 *108:6 *108:12 31.5536 
3 *108:12 *566:B 23 
4 *108:6 *600:B 28.4064 
*END

*D_NET *109 0.00137522
*CONN
*I *599:B I *D sky130_fd_sc_hd__nand2_1
*I *566:C I *D sky130_fd_sc_hd__nand3_1
*I *565:Y O *D sky130_fd_sc_hd__inv_2
*CAP
1 *599:B 0
2 *566:C 4.69071e-05
3 *565:Y 0.000502907
4 *109:12 4.69071e-05
5 *109:10 0.000502907
6 *566:C *602:C 5.41288e-05
7 *109:10 *174:10 0.000185434
8 *17:200 *109:10 3.60322e-05
9 *26:10 *109:10 0
10 *26:20 *109:10 0
*RES
1 *565:Y *109:10 45.6436 
2 *109:10 *109:12 15 
3 *109:12 *566:C 24.0979 
4 *109:12 *599:B 23 
*END

*D_NET *110 0.00100538
*CONN
*I *567:B I *D sky130_fd_sc_hd__nand2_1
*I *566:Y O *D sky130_fd_sc_hd__nand3_1
*CAP
1 *567:B 0
2 *566:Y 0.000266163
3 *110:10 0.000266163
4 *26:10 *110:10 0.000185104
5 *26:20 *110:10 6.16531e-05
6 *105:14 *110:10 0
7 *107:8 *110:10 0.0002263
*RES
1 *566:Y *110:10 43.8414 
2 *110:10 *567:B 38 
*END

*D_NET *111 0.000745012
*CONN
*I *569:A I *D sky130_fd_sc_hd__nand2_1
*I *567:Y O *D sky130_fd_sc_hd__nand2_1
*CAP
1 *569:A 4.67331e-06
2 *567:Y 0.000246256
3 *111:10 0.00025093
4 *111:10 *569:B 0
5 *111:10 *603:A1 0
6 *111:10 *113:8 1.0092e-05
7 *564:B *569:A 1.22308e-05
8 *564:B *111:10 0.000182832
9 *567:A *111:10 1.32939e-05
10 *43:8 *111:10 2.47037e-05
*RES
1 *567:Y *111:10 41.7286 
2 *111:10 *569:A 38.1554 
*END

*D_NET *112 0.0016792
*CONN
*I *603:A1 I *D sky130_fd_sc_hd__o211ai_2
*I *569:B I *D sky130_fd_sc_hd__nand2_1
*I *600:C I *D sky130_fd_sc_hd__nand3_1
*I *568:Y O *D sky130_fd_sc_hd__inv_2
*CAP
1 *603:A1 0.000119353
2 *569:B 6.57261e-05
3 *600:C 2.34823e-05
4 *568:Y 5.57621e-05
5 *112:19 0.000379418
6 *112:6 0.000273584
7 *603:A1 *113:8 4.33069e-05
8 *603:A1 *144:69 5.3304e-05
9 *112:19 *146:98 2.93845e-05
10 *560:A2 *112:19 0.000140259
11 *560:B1 *569:B 6.25829e-05
12 *560:B1 *603:A1 0.000187781
13 *567:A *569:B 5.67058e-05
14 *591:B1 *603:A1 5.3304e-05
15 *600:B *569:B 2.4754e-05
16 *600:B *112:19 5.37896e-05
17 *42:10 *112:19 5.67058e-05
18 *111:10 *569:B 0
19 *111:10 *603:A1 0
*RES
1 *568:Y *112:6 24.0979 
2 *112:6 *600:C 23.4971 
3 *112:6 *112:19 19.4536 
4 *112:19 *569:B 39.9471 
5 *112:19 *603:A1 41.2314 
*END

*D_NET *113 0.00185748
*CONN
*I *572:A I *D sky130_fd_sc_hd__nand2_1
*I *569:Y O *D sky130_fd_sc_hd__nand2_1
*CAP
1 *572:A 0.000199099
2 *569:Y 0.000334559
3 *113:8 0.000533658
4 *572:A *601:B 2.64616e-05
5 *572:A *116:8 0
6 *113:8 *141:18 0.000215098
7 *543:B *113:8 7.38401e-05
8 *591:B1 *113:8 1.94812e-05
9 *603:A1 *113:8 4.33069e-05
10 *26:8 *572:A 0.000121793
11 *42:18 *113:8 8.87351e-05
12 *44:10 *113:8 6.75596e-05
13 *101:29 *572:A 0.000123799
14 *111:10 *113:8 1.0092e-05
*RES
1 *569:Y *113:8 45.54 
2 *113:8 *572:A 42.93 
*END

*D_NET *114 0.00209291
*CONN
*I *616:B1 I *D sky130_fd_sc_hd__o211a_1
*I *571:A I *D sky130_fd_sc_hd__nand2_1
*I *570:Y O *D sky130_fd_sc_hd__nor2_1
*CAP
1 *616:B1 0.000414562
2 *571:A 0.00016967
3 *570:Y 5.81144e-05
4 *114:8 0.000642346
5 *571:A *611:B 2.93431e-05
6 *571:A *144:104 2.76611e-06
7 *571:A *156:10 4.2812e-06
8 *616:B1 *616:A2 1.12349e-05
9 *616:B1 *156:10 6.43168e-05
10 *570:B *114:8 6.17437e-06
11 *612:A *571:A 3.22051e-05
12 *87:16 *616:B1 0.000212703
13 *87:26 *616:B1 5.56356e-05
14 *90:72 *571:A 0.000222104
15 *99:10 *616:B1 0.000167452
*RES
1 *570:Y *114:8 38.6214 
2 *114:8 *571:A 42.2879 
3 *114:8 *616:B1 46.3479 
*END

*D_NET *115 0.00244064
*CONN
*I *597:A I *D sky130_fd_sc_hd__inv_2
*I *590:A1 I *D sky130_fd_sc_hd__o21ai_1
*I *572:B I *D sky130_fd_sc_hd__nand2_1
*I *571:Y O *D sky130_fd_sc_hd__nand2_1
*CAP
1 *597:A 0
2 *590:A1 0.000204137
3 *572:B 0.000119304
4 *571:Y 0.000101104
5 *115:16 0.000625634
6 *115:8 0.000403296
7 *572:B *117:10 0.000132285
8 *572:B *146:16 0
9 *590:A1 *573:B 0.000237027
10 *590:A1 *146:14 1.24376e-05
11 *115:8 *611:B 0.000378816
12 *115:16 *590:A2 0
13 *604:A2 *115:8 4.07902e-05
14 *604:B1 *115:16 0
15 *612:A *115:8 0.000108268
16 *58:10 *590:A1 2.97099e-05
17 *58:10 *115:16 0
18 *101:29 *572:B 1.16455e-05
19 *101:29 *115:16 3.61856e-05
*RES
1 *571:Y *115:8 27.4536 
2 *115:8 *115:16 19.4329 
3 *115:16 *572:B 40.2579 
4 *115:16 *590:A1 42.5986 
5 *115:8 *597:A 23 
*END

*D_NET *116 0.000590249
*CONN
*I *574:A I *D sky130_fd_sc_hd__nand2_1
*I *625:A I *D sky130_fd_sc_hd__nand3_1
*I *572:Y O *D sky130_fd_sc_hd__nand2_1
*CAP
1 *574:A 0
2 *625:A 1.36809e-05
3 *572:Y 0.000139848
4 *116:8 0.000153528
5 *625:A *625:C 5.56279e-05
6 *625:A *118:6 2.46906e-05
7 *116:8 *625:C 4.03226e-05
8 *116:8 *117:14 5.82853e-05
9 *116:8 *118:6 5.56279e-05
10 *572:A *116:8 0
11 *101:29 *116:8 2.83509e-05
12 *105:36 *116:8 2.02872e-05
*RES
1 *572:Y *116:8 26.0243 
2 *116:8 *625:A 23.6214 
3 *116:8 *574:A 23 
*END

*D_NET *117 0.00124155
*CONN
*I *625:C I *D sky130_fd_sc_hd__nand3_1
*I *574:B I *D sky130_fd_sc_hd__nand2_1
*I *573:Y O *D sky130_fd_sc_hd__nand2_1
*CAP
1 *625:C 0.000112854
2 *574:B 0
3 *573:Y 0.000152351
4 *117:14 0.000126244
5 *117:10 0.000165741
6 *625:C *607:A 0.000100061
7 *625:C *118:6 4.77213e-05
8 *117:10 *144:31 1.74874e-06
9 *572:B *117:10 0.000132285
10 *573:A *117:10 1.21972e-05
11 *625:A *625:C 5.56279e-05
12 *626:A *117:10 1.24376e-05
13 *57:10 *625:C 0.000102389
14 *101:29 *625:C 1.35999e-05
15 *101:29 *117:10 8.57577e-05
16 *101:29 *117:14 2.193e-05
17 *116:8 *625:C 4.03226e-05
18 *116:8 *117:14 5.82853e-05
*RES
1 *573:Y *117:10 40.5271 
2 *117:10 *117:14 15.6214 
3 *117:14 *574:B 23 
4 *117:14 *625:C 26.5007 
*END

*D_NET *118 0.0014518
*CONN
*I *624:A I *D sky130_fd_sc_hd__nand2_1
*I *575:A I *D sky130_fd_sc_hd__inv_2
*I *574:Y O *D sky130_fd_sc_hd__nand2_1
*CAP
1 *624:A 3.32522e-05
2 *575:A 0
3 *574:Y 6.78618e-05
4 *118:14 0.000336297
5 *118:6 0.000437411
6 *118:6 *607:A 1.02963e-05
7 *118:14 *144:31 0
8 *118:14 *146:59 8.65782e-05
9 *625:A *118:6 2.46906e-05
10 *625:C *118:6 4.77213e-05
11 *40:12 *118:14 4.66031e-05
12 *105:36 *624:A 2.99918e-05
13 *105:36 *118:6 0.000275472
14 *116:8 *118:6 5.56279e-05
*RES
1 *574:Y *118:6 26.0036 
2 *118:6 *118:14 36.09 
3 *118:14 *575:A 23 
4 *118:6 *624:A 23.8493 
*END

*D_NET *119 0.00296296
*CONN
*I *577:B1_N I *D sky130_fd_sc_hd__o21bai_1
*I *618:A2 I *D sky130_fd_sc_hd__a211oi_1
*I *576:Y O *D sky130_fd_sc_hd__nand2_1
*CAP
1 *577:B1_N 2.0995e-05
2 *618:A2 3.57804e-05
3 *576:Y 9.53785e-05
4 *119:12 0.00115362
5 *119:8 0.00119222
6 *577:B1_N *125:31 0
7 *119:12 *578:A 0.000119313
8 *119:12 *121:10 0.000182832
9 *577:A2 *577:B1_N 1.14154e-05
10 *577:A2 *618:A2 2.93747e-05
11 *577:A2 *119:12 0.000122031
*RES
1 *576:Y *119:8 39.5536 
2 *119:8 *119:12 34.2021 
3 *119:12 *618:A2 23.6214 
4 *119:12 *577:B1_N 23.4971 
*END

*D_NET *120 0.000448722
*CONN
*I *578:A I *D sky130_fd_sc_hd__nand2_1
*I *577:Y O *D sky130_fd_sc_hd__o21bai_1
*CAP
1 *578:A 0.000155135
2 *577:Y 0.000155135
3 *577:A2 *578:A 1.91381e-05
4 *119:12 *578:A 0.000119313
*RES
1 *577:Y *578:A 49.5214 
*END

*D_NET *121 0.000787915
*CONN
*I *584:A I *D sky130_fd_sc_hd__nand2_1
*I *578:Y O *D sky130_fd_sc_hd__nand2_1
*CAP
1 *584:A 0
2 *578:Y 0.000218852
3 *121:10 0.000218852
4 *121:10 *125:16 0
5 *121:10 *129:10 5.0898e-05
6 *546:A *121:10 2.33476e-05
7 *36:10 *121:10 2.07444e-05
8 *92:16 *121:10 7.23898e-05
9 *119:12 *121:10 0.000182832
*RES
1 *578:Y *121:10 41.9564 
2 *121:10 *584:A 38 
*END

*D_NET *122 0.00189794
*CONN
*I *639:A I *D sky130_fd_sc_hd__or2_1
*I *580:B I *D sky130_fd_sc_hd__nor2_1
*I *579:Y O *D sky130_fd_sc_hd__nand2_1
*CAP
1 *639:A 0.000218244
2 *580:B 0
3 *579:Y 8.06575e-05
4 *122:20 0.000336433
5 *122:8 0.000635335
6 *639:A *123:37 1.16455e-05
7 *122:20 *179:14 5.98148e-05
8 *638:A *639:A 0.000188526
9 *59:10 *122:20 2.11157e-05
10 *59:22 *639:A 6.36543e-05
11 *59:22 *122:8 2.15048e-05
12 *67:10 *639:A 2.45549e-06
13 *82:12 *122:20 2.64616e-05
14 *82:22 *122:20 9.28078e-06
15 *98:10 *639:A 0.000120421
16 *98:10 *122:8 0.000102391
*RES
1 *579:Y *122:8 39.3775 
2 *122:8 *122:20 32.5137 
3 *122:20 *580:B 23 
4 *122:8 *639:A 42.6089 
*END

*D_NET *123 0.00429065
*CONN
*I *643:C I *D sky130_fd_sc_hd__nand3_1
*I *581:B I *D sky130_fd_sc_hd__nor2_1
*I *580:Y O *D sky130_fd_sc_hd__nor2_1
*CAP
1 *643:C 0
2 *581:B 0.000247151
3 *580:Y 7.94678e-05
4 *123:37 0.000667112
5 *123:8 0.00099373
6 *581:B *143:16 1.01436e-05
7 *123:8 *579:A 5.50106e-05
8 *123:8 *179:14 2.18409e-05
9 *123:37 *538:B 5.3304e-05
10 *537:A *581:B 0.000438468
11 *639:A *123:37 1.16455e-05
12 *59:10 *581:B 0.000101232
13 *59:10 *123:37 8.54238e-05
14 *59:22 *123:37 0.0002312
15 *59:35 *123:37 0.00041087
16 *71:21 *123:37 0.000251435
17 *81:8 *581:B 0.000132034
18 *82:22 *581:B 0.000313255
19 *98:10 *581:B 4.99753e-06
20 *98:10 *123:37 0.000182331
*RES
1 *580:Y *123:8 39.0979 
2 *123:8 *581:B 45.9336 
3 *123:8 *123:37 30.5771 
4 *123:37 *643:C 23 
*END

*D_NET *124 0.00230134
*CONN
*I *618:C1 I *D sky130_fd_sc_hd__a211oi_1
*I *594:A I *D sky130_fd_sc_hd__nand2_1
*I *583:A I *D sky130_fd_sc_hd__nand3_1
*I *581:Y O *D sky130_fd_sc_hd__nor2_1
*CAP
1 *618:C1 0
2 *594:A 0
3 *583:A 8.39514e-05
4 *581:Y 0.00032356
5 *124:16 0.000295922
6 *124:10 0.000535531
7 *124:10 *125:16 0
8 *124:10 *125:31 0.000104123
9 *124:10 *148:18 0.000343064
10 *124:16 *125:16 0
11 *545:B *583:A 4.46576e-05
12 *617:A *124:16 4.62967e-05
13 *618:A1 *124:16 6.68793e-05
14 *36:10 *583:A 4.75206e-05
15 *59:10 *124:10 0
16 *59:10 *124:16 0
17 *82:22 *124:10 0.000139352
18 *87:14 *124:10 0
19 *89:16 *124:16 6.07611e-06
20 *90:92 *124:16 1.83564e-05
21 *91:12 *124:16 2.31116e-05
22 *92:24 *583:A 0.000222937
*RES
1 *581:Y *124:10 44.6493 
2 *124:10 *124:16 18.2314 
3 *124:16 *583:A 26.045 
4 *124:16 *594:A 23 
5 *124:10 *618:C1 38 
*END

*D_NET *125 0.00326662
*CONN
*I *586:A I *D sky130_fd_sc_hd__nor2_1
*I *617:B I *D sky130_fd_sc_hd__nand2_1
*I *583:B I *D sky130_fd_sc_hd__nand3_1
*I *582:Y O *D sky130_fd_sc_hd__inv_2
*CAP
1 *586:A 0
2 *617:B 0
3 *583:B 0
4 *582:Y 0.000206991
5 *125:31 0.00031328
6 *125:16 0.000301406
7 *125:8 0.000821676
8 *125:8 *129:10 4.39488e-05
9 *125:8 *143:6 1.14154e-05
10 *125:8 *143:80 0.000445374
11 *125:16 *129:10 0
12 *125:31 *143:16 0.000141318
13 *125:31 *143:80 1.41129e-05
14 *125:31 *148:10 5.90675e-06
15 *541:B *125:8 4.28695e-05
16 *541:B *125:31 5.3304e-05
17 *577:A1 *125:16 0
18 *577:A2 *125:16 0.000192087
19 *577:B1_N *125:31 0
20 *617:A *125:16 2.96323e-05
21 *617:A *125:31 8.0163e-06
22 *618:B1 *125:31 1.14154e-05
23 *36:10 *125:16 5.50049e-05
24 *59:10 *125:31 0
25 *86:12 *125:16 3.47781e-05
26 *87:14 *125:31 0.000135465
27 *87:44 *125:8 5.50106e-05
28 *87:44 *125:16 8.72173e-05
29 *92:16 *125:16 9.55606e-05
30 *92:24 *125:16 5.67058e-05
31 *121:10 *125:16 0
32 *124:10 *125:16 0
33 *124:10 *125:31 0.000104123
34 *124:16 *125:16 0
*RES
1 *582:Y *125:8 29.3593 
2 *125:8 *125:16 36.0486 
3 *125:16 *583:B 23 
4 *125:8 *125:31 36.9911 
5 *125:31 *617:B 23 
6 *125:8 *586:A 23 
*END

*D_NET *126 0.000449838
*CONN
*I *584:B I *D sky130_fd_sc_hd__nand2_1
*I *583:Y O *D sky130_fd_sc_hd__nand3_1
*CAP
1 *584:B 0
2 *583:Y 0.000139935
3 *126:18 0.000139935
4 *126:18 *127:10 9.5877e-05
5 *36:10 *126:18 1.36046e-05
6 *92:16 *126:18 2.50585e-05
7 *92:24 *126:18 3.54283e-05
*RES
1 *583:Y *126:18 27.6089 
2 *126:18 *584:B 23 
*END

*D_NET *127 0.00203476
*CONN
*I *596:B I *D sky130_fd_sc_hd__nor2_1
*I *592:A I *D sky130_fd_sc_hd__or3_1
*I *584:Y O *D sky130_fd_sc_hd__nand2_1
*CAP
1 *596:B 0
2 *592:A 0.000347041
3 *584:Y 0.000177986
4 *127:10 0.000525027
5 *592:A *590:B1 0.000182213
6 *592:A *129:10 0
7 *592:A *135:10 0.000164282
8 *592:A *146:10 6.8667e-05
9 *127:10 *129:10 0
10 *605:A *592:A 4.41821e-06
11 *622:C *592:A 5.58003e-05
12 *36:10 *127:10 0.000138718
13 *38:10 *592:A 9.81772e-05
14 *45:10 *592:A 3.69096e-05
15 *54:10 *592:A 0.000139647
16 *89:16 *592:A 0
17 *89:16 *127:10 0
18 *126:18 *127:10 9.5877e-05
*RES
1 *584:Y *127:10 41.3557 
2 *127:10 *592:A 46.5964 
3 *127:10 *596:B 38 
*END

*D_NET *128 0.00238584
*CONN
*I *604:A1 I *D sky130_fd_sc_hd__a21oi_1
*I *590:A2 I *D sky130_fd_sc_hd__o21ai_1
*I *585:Y O *D sky130_fd_sc_hd__a21oi_1
*CAP
1 *604:A1 6.94194e-05
2 *590:A2 0.000410891
3 *585:Y 0.000521529
4 *128:8 0.00100184
5 *590:A2 *141:18 0
6 *590:A2 *146:14 2.03764e-06
7 *604:A1 *611:B 9.84794e-05
8 *128:8 *141:18 0
9 *128:8 *141:33 0
10 *623:A *590:A2 2.45549e-06
11 *3:23 *128:8 5.02846e-05
12 *58:10 *590:A2 0.000228903
13 *115:16 *590:A2 0
*RES
1 *585:Y *128:8 47.6529 
2 *128:8 *590:A2 43.9657 
3 *128:8 *604:A1 39.0979 
*END

*D_NET *129 0.00168863
*CONN
*I *589:A I *D sky130_fd_sc_hd__nand2_1
*I *595:B I *D sky130_fd_sc_hd__nor2_1
*I *586:Y O *D sky130_fd_sc_hd__nor2_1
*CAP
1 *589:A 2.87323e-05
2 *595:B 0
3 *586:Y 0.000548481
4 *129:12 2.87323e-05
5 *129:10 0.000548481
6 *589:A *589:B 5.41385e-05
7 *589:A *132:10 5.41385e-05
8 *541:B *129:10 5.67058e-05
9 *546:A *129:10 2.33476e-05
10 *577:A1 *129:10 0.000194318
11 *592:A *129:10 0
12 *36:10 *129:10 0
13 *87:6 *129:10 5.67058e-05
14 *92:55 *129:10 0
15 *121:10 *129:10 5.0898e-05
16 *125:8 *129:10 4.39488e-05
17 *125:16 *129:10 0
18 *127:10 *129:10 0
*RES
1 *586:Y *129:10 48.295 
2 *129:10 *129:12 15 
3 *129:12 *595:B 23 
4 *129:12 *589:A 24.0979 
*END

*D_NET *130 0.00230233
*CONN
*I *588:B I *D sky130_fd_sc_hd__and2_1
*I *601:B I *D sky130_fd_sc_hd__nor2_1
*I *587:Y O *D sky130_fd_sc_hd__inv_2
*CAP
1 *588:B 0
2 *601:B 0.000218118
3 *587:Y 0
4 *130:23 0.000453936
5 *130:4 0.000672054
6 *601:B *556:B 9.66585e-05
7 *601:B *144:81 6.31718e-05
8 *601:B *144:87 5.3304e-05
9 *130:23 *556:B 2.33782e-05
10 *130:23 *134:10 3.56796e-05
11 *130:23 *135:10 2.49836e-05
12 *130:23 *145:23 7.67664e-05
13 *572:A *601:B 2.64616e-05
14 *605:B *130:23 0.000110267
15 *45:10 *130:23 0.000207265
16 *89:16 *130:23 1.58805e-05
17 *90:92 *130:23 0
18 *101:29 *601:B 0.000224411
*RES
1 *587:Y *130:4 23 
2 *130:4 *601:B 27.9507 
3 *130:4 *130:23 38.0786 
4 *130:23 *588:B 23 
*END

*D_NET *131 0.00614016
*CONN
*I *594:B I *D sky130_fd_sc_hd__nand2_1
*I *589:B I *D sky130_fd_sc_hd__nand2_1
*I *611:B I *D sky130_fd_sc_hd__nor2_1
*I *588:X O *D sky130_fd_sc_hd__and2_1
*CAP
1 *594:B 0.000101013
2 *589:B 0.000562895
3 *611:B 0.00110206
4 *588:X 0.000247862
5 *131:25 0.000784689
6 *131:8 0.0014707
7 *589:B *141:8 3.53051e-05
8 *611:B *144:104 3.40181e-05
9 *131:8 *593:A 1.24376e-05
10 *571:A *611:B 2.93431e-05
11 *589:A *589:B 5.41385e-05
12 *595:A *589:B 9.84851e-05
13 *596:A *589:B 1.76557e-05
14 *604:A1 *611:B 9.84794e-05
15 *604:A2 *611:B 1.79293e-05
16 *604:B1 *611:B 0.000145775
17 *612:A *611:B 9.94869e-05
18 *627:A *131:8 0.000245244
19 *45:8 *611:B 7.36732e-05
20 *48:8 *611:B 4.00259e-06
21 *59:10 *594:B 0
22 *59:10 *131:25 0
23 *89:12 *611:B 7.44257e-05
24 *89:12 *131:8 3.75171e-05
25 *90:92 *594:B 0.000194327
26 *90:92 *131:25 0.000219882
27 *115:8 *611:B 0.000378816
*RES
1 *588:X *131:8 27.93 
2 *131:8 *611:B 42.2643 
3 *131:8 *131:25 17.9621 
4 *131:25 *589:B 47.715 
5 *131:25 *594:B 40.61 
*END

*D_NET *132 0.00247167
*CONN
*I *590:B1 I *D sky130_fd_sc_hd__o21ai_1
*I *589:Y O *D sky130_fd_sc_hd__nand2_1
*CAP
1 *590:B1 0.000351721
2 *589:Y 0.000284372
3 *132:10 0.000636093
4 *590:B1 *133:8 0.000440163
5 *590:B1 *135:10 2.93845e-05
6 *590:B1 *146:8 4.94011e-05
7 *590:B1 *146:10 0.000102544
8 *590:B1 *146:14 1.35714e-05
9 *589:A *132:10 5.41385e-05
10 *592:A *590:B1 0.000182213
11 *623:A *590:B1 0.000123241
12 *38:10 *132:10 0.000175449
13 *54:10 *590:B1 2.93845e-05
*RES
1 *589:Y *132:10 43.8207 
2 *132:10 *590:B1 47.6736 
*END

*D_NET *133 0.00106786
*CONN
*I *592:B I *D sky130_fd_sc_hd__or3_1
*I *590:Y O *D sky130_fd_sc_hd__o21ai_1
*CAP
1 *592:B 0
2 *590:Y 0.000256968
3 *133:8 0.000256968
4 *590:B1 *133:8 0.000440163
5 *623:A *133:8 1.358e-05
6 *55:10 *133:8 0.00010018
*RES
1 *590:Y *133:8 28.8829 
2 *133:8 *592:B 23 
*END

*D_NET *134 0.00135833
*CONN
*I *592:C I *D sky130_fd_sc_hd__or3_1
*I *591:X O *D sky130_fd_sc_hd__o311a_1
*CAP
1 *592:C 0
2 *591:X 0.000403123
3 *134:10 0.000403123
4 *134:10 *144:69 2.10502e-05
5 *134:10 *144:81 0.000322528
6 *134:10 *188:27 2.19667e-05
7 *591:C1 *134:10 5.54823e-05
8 *90:92 *134:10 9.53769e-05
9 *130:23 *134:10 3.56796e-05
*RES
1 *591:X *134:10 47.1143 
2 *134:10 *592:C 38 
*END

*D_NET *135 0.000870449
*CONN
*I *593:A I *D sky130_fd_sc_hd__clkbuf_1
*I *592:X O *D sky130_fd_sc_hd__or3_1
*CAP
1 *593:A 9.6473e-05
2 *592:X 0.000120197
3 *135:10 0.000216669
4 *590:B1 *135:10 2.93845e-05
5 *592:A *135:10 0.000164282
6 *627:A *593:A 9.41704e-05
7 *45:10 *135:10 0.000111852
8 *130:23 *135:10 2.49836e-05
9 *131:8 *593:A 1.24376e-05
*RES
1 *592:X *135:10 40.8793 
2 *135:10 *593:A 39.5743 
*END

*D_NET *136 0.00726412
*CONN
*I *672:D I *D sky130_fd_sc_hd__dfrtp_1
*I *609:Y O *D sky130_fd_sc_hd__a21oi_1
*CAP
1 *672:D 0.000839934
2 *609:Y 0.00025299
3 *136:28 0.00269004
4 *136:12 0.00210309
5 *672:D *143:57 0.00019047
6 *672:D *148:18 1.24376e-05
7 *672:D *157:8 6.30277e-06
8 *136:12 *607:A 0
9 *136:12 *609:A1 9.85586e-06
10 *136:12 *610:A 7.42262e-05
11 *136:12 *146:33 2.42683e-05
12 *136:12 *146:59 1.24585e-05
13 *136:28 *585:A1 0
14 *136:28 *143:57 0
15 *136:28 *156:10 1.12919e-05
16 *136:28 *176:36 0
17 *136:28 *176:66 6.16439e-05
18 *136:28 *177:14 0.000337724
19 *136:28 *178:8 0
20 *136:28 *178:34 0
21 *631:A *672:D 1.21972e-05
22 *672:RESET_B *672:D 5.74804e-05
23 *17:106 *136:28 0
24 *30:8 *136:28 8.62876e-05
25 *40:22 *136:12 3.39102e-05
26 *56:10 *136:12 5.20648e-05
27 *66:14 *136:28 0.000262089
28 *90:49 *136:12 8.02575e-06
29 *99:10 *136:28 0.000125339
*RES
1 *609:Y *136:12 49.323 
2 *136:12 *136:28 40.0774 
3 *136:28 *672:D 49.1443 
*END

*D_NET *137 0.000913679
*CONN
*I *673:D I *D sky130_fd_sc_hd__dfrtp_1
*I *613:X O *D sky130_fd_sc_hd__clkbuf_1
*CAP
1 *673:D 0
2 *613:X 0.000302625
3 *137:10 0.000302625
4 *137:10 *143:130 0.000253844
5 *137:10 *159:65 0
6 *672:RESET_B *137:10 2.29192e-05
7 *49:20 *137:10 3.16665e-05
*RES
1 *613:X *137:10 43.0336 
2 *137:10 *673:D 38 
*END

*D_NET *138 0.000817604
*CONN
*I *670:D I *D sky130_fd_sc_hd__dfrtp_1
*I *555:Y O *D sky130_fd_sc_hd__nor2_1
*CAP
1 *670:D 5.32122e-05
2 *555:Y 0.000275038
3 *138:10 0.00032825
4 *138:10 *139:8 0.000114074
5 *138:10 *143:41 0
6 *555:A *138:10 1.76557e-05
7 *555:B *138:10 2.93747e-05
8 *17:148 *138:10 0
9 *17:150 *138:10 0
10 *27:14 *138:10 0
*RES
1 *555:Y *138:10 43.1164 
2 *138:10 *670:D 38.6836 
*END

*D_NET *139 0.000294408
*CONN
*I *671:D I *D sky130_fd_sc_hd__dfrtp_1
*I *614:X O *D sky130_fd_sc_hd__a21o_1
*CAP
1 *671:D 0
2 *614:X 4.07883e-05
3 *139:8 4.07883e-05
4 *139:8 *143:41 1.02387e-05
5 *49:20 *139:8 8.85189e-05
6 *138:10 *139:8 0.000114074
*RES
1 *614:X *139:8 39.5536 
2 *139:8 *671:D 38 
*END

*D_NET *140 0.00293852
*CONN
*I *668:D I *D sky130_fd_sc_hd__dfrtp_1
*I *615:Y O *D sky130_fd_sc_hd__o21ai_1
*CAP
1 *668:D 0
2 *615:Y 0
3 *140:12 0.000980237
4 *140:6 0.000980237
5 *140:12 *668:CLK 0.000562044
6 *140:12 *142:95 0.000215869
7 *140:12 *153:10 4.79641e-05
8 *27:14 *140:12 0.000152166
*RES
1 *615:Y *140:6 38 
2 *140:6 *140:12 38.2 
3 *140:12 *668:D 23 
*END

*D_NET *141 0.00473174
*CONN
*I *687:A I *D sky130_fd_sc_hd__clkbuf_16
*I *686:A I *D sky130_fd_sc_hd__clkbuf_16
*I *685:X O *D sky130_fd_sc_hd__clkbuf_16
*CAP
1 *687:A 0
2 *686:A 0
3 *685:X 0.000361192
4 *141:33 0.000543871
5 *141:18 0.000607714
6 *141:8 0.00151278
7 *141:18 *144:87 4.62478e-05
8 *141:18 *144:104 6.94106e-05
9 *141:33 *585:A1 0
10 *589:B *141:8 3.53051e-05
11 *590:A2 *141:18 0
12 *604:B1 *141:18 0.000154289
13 *3:23 *141:33 0
14 *44:10 *141:18 0.000392771
15 *58:10 *141:18 9.21347e-06
16 *59:10 *141:18 8.16253e-05
17 *59:10 *141:33 0.000283362
18 *88:66 *141:18 7.48608e-05
19 *89:8 *141:18 1.17152e-05
20 *90:10 *141:18 0.000145161
21 *98:14 *141:33 0.000187129
22 *113:8 *141:18 0.000215098
23 *128:8 *141:18 0
24 *128:8 *141:33 0
*RES
1 *685:X *141:8 42.4329 
2 *141:8 *141:18 29.4793 
3 *141:18 *686:A 23 
4 *141:8 *141:33 27.9464 
5 *141:33 *687:A 23 
*END

*D_NET *142 0.01968
*CONN
*I *676:CLK I *D sky130_fd_sc_hd__dfrtp_4
*I *675:CLK I *D sky130_fd_sc_hd__dfrtp_1
*I *681:CLK I *D sky130_fd_sc_hd__dfrtp_1
*I *682:CLK I *D sky130_fd_sc_hd__dfrtp_1
*I *678:CLK I *D sky130_fd_sc_hd__dfrtp_1
*I *683:CLK I *D sky130_fd_sc_hd__dfrtp_1
*I *679:CLK I *D sky130_fd_sc_hd__dfrtp_1
*I *667:CLK I *D sky130_fd_sc_hd__dfrtp_1
*I *674:CLK I *D sky130_fd_sc_hd__dfrtp_4
*I *669:CLK I *D sky130_fd_sc_hd__dfrtp_1
*I *670:CLK I *D sky130_fd_sc_hd__dfrtp_1
*I *668:CLK I *D sky130_fd_sc_hd__dfrtp_1
*I *666:CLK I *D sky130_fd_sc_hd__dfrtp_1
*I *684:CLK I *D sky130_fd_sc_hd__dfrtp_1
*I *680:CLK I *D sky130_fd_sc_hd__dfrtp_1
*I *677:CLK I *D sky130_fd_sc_hd__dfrtp_1
*I *686:X O *D sky130_fd_sc_hd__clkbuf_16
*CAP
1 *676:CLK 0
2 *675:CLK 0.000103537
3 *681:CLK 0.000165071
4 *682:CLK 0
5 *678:CLK 4.01155e-05
6 *683:CLK 0
7 *679:CLK 0
8 *667:CLK 6.91915e-06
9 *674:CLK 0
10 *669:CLK 0
11 *670:CLK 0
12 *668:CLK 0.000678521
13 *666:CLK 6.80978e-05
14 *684:CLK 0.000118837
15 *680:CLK 0.000379264
16 *677:CLK 0.000217034
17 *686:X 0.000775556
18 *142:185 0.000620923
19 *142:170 0.000882504
20 *142:138 7.39217e-05
21 *142:120 4.63057e-05
22 *142:103 0.000311412
23 *142:97 0.000368012
24 *142:95 0.000318614
25 *142:76 0.00107221
26 *142:65 0.000333535
27 *142:45 0.000750386
28 *142:37 0.000805397
29 *142:33 0.00113952
30 *142:31 0.00148509
31 *142:29 0.00184082
32 *142:14 0.00138223
33 *142:12 0.000223031
34 *142:10 0.000784427
35 *142:8 0.000649254
36 *142:6 0.000775556
37 *668:CLK *153:10 9.84794e-05
38 *677:CLK *167:8 2.30292e-05
39 *677:CLK *185:10 2.39877e-05
40 *680:CLK *680:D 5.2894e-05
41 *681:CLK *681:D 6.17437e-06
42 *684:CLK *684:D 0.000182793
43 *142:14 *185:10 2.64173e-05
44 *142:29 *185:10 0.000114916
45 *142:33 *679:D 0.00014167
46 *142:65 *153:10 0
47 *142:76 *153:10 0
48 *142:138 *186:8 0.000108681
49 *142:185 *146:8 0.000247254
50 clk_gate_en *142:45 3.1384e-05
51 clk_gate_en *142:65 0
52 clk_gate_en *142:76 0
53 clk_gate_en *142:95 0
54 retention_en *142:65 0
55 *674:RESET_B *142:97 1.35714e-05
56 *676:RESET_B *142:185 0.000100782
57 *679:RESET_B *142:33 9.3307e-05
58 *680:RESET_B *680:CLK 2.8521e-05
59 *17:166 *680:CLK 2.93845e-05
60 *17:170 *680:CLK 0.000115372
61 *17:170 *684:CLK 9.30575e-05
62 *26:20 *667:CLK 5.79559e-05
63 *26:20 *142:31 3.70071e-06
64 *26:20 *142:33 5.21899e-05
65 *26:20 *142:37 4.77213e-05
66 *26:20 *142:138 0.000135557
67 *27:14 *142:97 2.95526e-05
68 *27:14 *142:103 0.000594958
69 *90:6 *142:6 3.26241e-05
70 *140:12 *668:CLK 0.000562044
71 *140:12 *142:95 0.000215869
*RES
1 *686:X *142:6 37.4379 
2 *142:6 *142:8 15 
3 *142:8 *142:10 9.30071 
4 *142:10 *142:12 2.25786 
5 *142:12 *142:14 1.90571 
6 *142:14 *677:CLK 42.2879 
7 *142:14 *142:29 28.9614 
8 *142:29 *142:31 9.67357 
9 *142:31 *142:33 9.67357 
10 *142:33 *142:37 20.8621 
11 *142:37 *142:45 19.5571 
12 *142:45 *680:CLK 30.7886 
13 *142:45 *684:CLK 26.9771 
14 *142:37 *142:65 2.25786 
15 *142:65 *666:CLK 39.0979 
16 *142:65 *142:76 2.25786 
17 *142:76 *668:CLK 49.6414 
18 *142:76 *142:95 21.1314 
19 *142:95 *142:97 1.09786 
20 *142:97 *142:103 38.5964 
21 *142:103 *670:CLK 23 
22 *142:97 *669:CLK 23 
23 *142:95 *674:CLK 23 
24 *142:33 *142:120 0.849286 
25 *142:120 *667:CLK 23.6214 
26 *142:120 *679:CLK 23 
27 *142:31 *142:138 31.9057 
28 *142:138 *683:CLK 23 
29 *142:29 *678:CLK 23.8493 
30 *142:12 *682:CLK 38 
31 *142:10 *681:CLK 40.4236 
32 *142:8 *142:170 2.96214 
33 *142:170 *675:CLK 39.5743 
34 *142:170 *142:185 27.9879 
35 *142:185 *676:CLK 23 
*END

*D_NET *143 0.0196883
*CONN
*I *665:CLK I *D sky130_fd_sc_hd__dfrtp_1
*I *663:CLK I *D sky130_fd_sc_hd__dfrtp_1
*I *662:CLK I *D sky130_fd_sc_hd__dfrtp_1
*I *673:CLK I *D sky130_fd_sc_hd__dfrtp_1
*I *659:CLK I *D sky130_fd_sc_hd__dfrtp_1
*I *664:CLK I *D sky130_fd_sc_hd__dfrtp_1
*I *661:CLK I *D sky130_fd_sc_hd__dfrtp_1
*I *660:CLK I *D sky130_fd_sc_hd__dfrtp_1
*I *658:CLK I *D sky130_fd_sc_hd__dfrtp_1
*I *672:CLK I *D sky130_fd_sc_hd__dfrtp_1
*I *657:CLK I *D sky130_fd_sc_hd__dfstp_1
*I *671:CLK I *D sky130_fd_sc_hd__dfrtp_1
*I *688:A I *D sky130_fd_sc_hd__bufinv_16
*I *687:X O *D sky130_fd_sc_hd__clkbuf_16
*CAP
1 *665:CLK 0
2 *663:CLK 0
3 *662:CLK 0
4 *673:CLK 0
5 *659:CLK 0
6 *664:CLK 0
7 *661:CLK 9.61547e-05
8 *660:CLK 0
9 *658:CLK 0.000544975
10 *672:CLK 0
11 *657:CLK 0
12 *671:CLK 0
13 *688:A 0
14 *687:X 2.0995e-05
15 *143:130 0.000351712
16 *143:118 0.000540148
17 *143:116 0.000691444
18 *143:114 0.00118295
19 *143:101 0.00082323
20 *143:95 0.000487143
21 *143:80 0.00105958
22 *143:57 0.000430729
23 *143:41 0.000401704
24 *143:33 0.00063705
25 *143:27 0.000666075
26 *143:25 0.000956575
27 *143:16 0.00118277
28 *143:6 0.00141173
29 *658:CLK *176:10 0.000102093
30 *658:CLK *176:36 6.24154e-05
31 *143:25 *176:36 2.64616e-05
32 *143:33 *616:A2 1.01436e-05
33 *143:33 *176:36 0.000151907
34 *143:33 *176:38 5.15096e-05
35 *143:57 *176:36 6.25829e-05
36 *143:57 *177:14 0
37 *143:101 *539:B 4.6834e-05
38 *143:101 *182:27 9.86322e-05
39 *143:130 *159:65 0
40 *537:A *143:16 5.50049e-05
41 *550:A *143:33 9.58714e-05
42 *581:B *143:16 1.01436e-05
43 *616:A1 *143:33 3.47781e-05
44 *616:A1 *143:41 0
45 *630:B *143:57 0.000162418
46 *631:A *143:57 0.000353855
47 *653:B *143:114 0.000147807
48 *655:B *143:95 0.000117106
49 *655:B *143:101 0.00021739
50 *655:B *143:114 6.13373e-05
51 *657:SET_B *143:33 5.70419e-05
52 *657:SET_B *143:41 2.93845e-05
53 *658:RESET_B *658:CLK 2.56078e-05
54 *660:D *143:25 0.000204176
55 *660:RESET_B *143:25 2.55762e-05
56 *661:D *143:80 1.14452e-05
57 *661:D *143:95 0.00031713
58 *662:D *143:116 7.42208e-05
59 *662:D *143:118 7.44257e-05
60 *662:RESET_B *143:116 2.84479e-05
61 *663:RESET_B *143:114 0.000222287
62 *672:D *143:57 0.00019047
63 *672:RESET_B *143:57 7.61229e-06
64 *672:RESET_B *143:130 0
65 *673:RESET_B *143:130 6.58922e-05
66 *3:13 *143:57 0
67 *17:37 *143:114 0.000401106
68 *17:49 *143:114 0.000258354
69 *17:49 *143:116 0.000230089
70 *17:59 *143:116 0.000198495
71 *17:61 *143:118 5.05471e-05
72 *17:61 *143:130 3.7122e-06
73 *17:96 *143:114 0
74 *17:106 *143:16 0.00023555
75 *17:106 *143:25 0.000229177
76 *17:122 *658:CLK 0.000112087
77 *17:122 *143:25 0.00029515
78 *27:14 *143:41 0.000560426
79 *35:10 *143:101 0.000138859
80 *49:20 *143:41 0.000404259
81 *49:20 *143:130 3.43965e-05
82 *51:10 *143:33 4.95081e-05
83 *59:10 *143:16 6.32688e-05
84 *60:8 *143:57 0.000164659
85 *62:10 *143:57 5.41195e-05
86 *74:33 *143:114 0
87 *79:10 *143:101 1.13812e-05
88 *79:10 *143:114 0.000123859
89 *87:14 *143:16 1.32289e-05
90 *94:12 *143:33 0.000185755
91 *94:12 *143:57 0.000236614
92 *98:10 *143:16 7.03766e-05
93 *125:8 *143:6 1.14154e-05
94 *125:8 *143:80 0.000445374
95 *125:31 *143:16 0.000141318
96 *125:31 *143:80 1.41129e-05
97 *136:28 *143:57 0
98 *137:10 *143:130 0.000253844
99 *138:10 *143:41 0
100 *139:8 *143:41 1.02387e-05
*RES
1 *687:X *143:6 23.4971 
2 *143:6 *143:16 43.63 
3 *143:16 *688:A 23 
4 *143:16 *143:25 11.1236 
5 *143:25 *143:27 15 
6 *143:27 *143:33 21.4421 
7 *143:33 *143:41 42.035 
8 *143:41 *671:CLK 23 
9 *143:33 *657:CLK 23 
10 *143:27 *143:57 27.2007 
11 *143:57 *672:CLK 23 
12 *143:25 *658:CLK 33.6264 
13 *143:25 *660:CLK 23 
14 *143:6 *143:80 25.8129 
15 *143:80 *661:CLK 39.595 
16 *143:80 *143:95 23.2443 
17 *143:95 *143:101 19.5364 
18 *143:101 *664:CLK 38 
19 *143:101 *143:114 31.9236 
20 *143:114 *143:116 12.5321 
21 *143:116 *143:118 3.48 
22 *143:118 *143:130 36.7321 
23 *143:130 *659:CLK 23 
24 *143:118 *673:CLK 23 
25 *143:116 *662:CLK 23 
26 *143:114 *663:CLK 23 
27 *143:95 *665:CLK 23 
*END

*D_NET *144 0.0113984
*CONN
*I *561:A I *D sky130_fd_sc_hd__inv_2
*I *591:A1 I *D sky130_fd_sc_hd__o311a_1
*I *556:A I *D sky130_fd_sc_hd__nand2_1
*I *571:B I *D sky130_fd_sc_hd__nand2_1
*I *543:A I *D sky130_fd_sc_hd__nor2_1
*I *607:A I *D sky130_fd_sc_hd__nor2_1
*I *625:B I *D sky130_fd_sc_hd__nand3_1
*I *606:A1 I *D sky130_fd_sc_hd__o21a_1
*I *674:Q O *D sky130_fd_sc_hd__dfrtp_4
*CAP
1 *561:A 0
2 *591:A1 0
3 *556:A 0
4 *571:B 0
5 *543:A 0
6 *607:A 0.000440659
7 *625:B 0
8 *606:A1 0.000260378
9 *674:Q 1.63643e-05
10 *144:104 0.000805786
11 *144:87 0.00095428
12 *144:81 0.000640995
13 *144:69 0.00101795
14 *144:31 0.000911316
15 *144:12 0.000731036
16 *144:10 0.000593275
17 *144:6 8.41928e-05
18 *606:A1 *564:A 0.000366666
19 *606:A1 *146:59 0
20 *144:69 *188:27 5.82853e-05
21 *144:81 *556:B 6.55954e-05
22 *144:81 *145:23 0.000141344
23 *543:B *144:87 0.000143715
24 *571:A *144:104 2.76611e-06
25 *591:B1 *144:69 6.74292e-05
26 *591:C1 *144:69 5.58003e-05
27 *598:A *144:10 3.23857e-06
28 *598:A *144:69 3.28357e-06
29 *601:B *144:81 6.31718e-05
30 *601:B *144:87 5.3304e-05
31 *603:A1 *144:69 5.3304e-05
32 *603:A2 *144:69 6.12312e-05
33 *604:A2 *144:104 4.5051e-05
34 *606:A2 *606:A1 0.000584301
35 *609:B1 *607:A 9.79925e-05
36 *611:B *144:104 3.40181e-05
37 *612:A *144:104 0.000277173
38 *625:C *607:A 0.000100061
39 *40:22 *607:A 0.000153226
40 *42:18 *144:69 0.000248463
41 *44:10 *144:69 5.82853e-05
42 *45:8 *144:104 0.000436767
43 *46:10 *607:A 1.3523e-05
44 *56:10 *607:A 5.56356e-05
45 *57:10 *607:A 1.74874e-06
46 *88:49 *144:6 5.79559e-05
47 *88:49 *144:10 4.65096e-05
48 *88:49 *144:69 2.64616e-05
49 *88:66 *144:69 0.00033897
50 *89:8 *144:87 1.13812e-05
51 *89:8 *144:104 0.000163243
52 *90:49 *144:31 6.73801e-06
53 *90:72 *144:104 0
54 *105:14 *606:A1 0.000189157
55 *105:14 *144:31 8.58779e-05
56 *105:36 *607:A 1.6458e-05
57 *105:36 *144:31 0.000282732
58 *117:10 *144:31 1.74874e-06
59 *118:6 *607:A 1.02963e-05
60 *118:14 *144:31 0
61 *134:10 *144:69 2.10502e-05
62 *134:10 *144:81 0.000322528
63 *136:12 *607:A 0
64 *141:18 *144:87 4.62478e-05
65 *141:18 *144:104 6.94106e-05
*RES
1 *674:Q *144:6 23.6214 
2 *144:6 *144:10 1.595 
3 *144:10 *144:12 15 
4 *144:12 *606:A1 46.9486 
5 *144:12 *144:31 7.99571 
6 *144:31 *625:B 38 
7 *144:31 *607:A 46.4411 
8 *144:10 *144:69 13.8371 
9 *144:69 *144:81 40.0257 
10 *144:81 *144:87 18.2314 
11 *144:87 *543:A 38 
12 *144:87 *144:104 43.6093 
13 *144:104 *571:B 38 
14 *144:81 *556:A 23 
15 *144:69 *591:A1 23 
16 *144:6 *561:A 23 
*END

*D_NET *145 0.00161841
*CONN
*I *587:A I *D sky130_fd_sc_hd__inv_2
*I *556:B I *D sky130_fd_sc_hd__nand2_1
*I *544:A I *D sky130_fd_sc_hd__clkbuf_2
*I *675:Q O *D sky130_fd_sc_hd__dfrtp_1
*CAP
1 *587:A 0
2 *556:B 5.25403e-05
3 *544:A 0
4 *675:Q 0.000182214
5 *145:23 0.000229627
6 *145:12 0.00015187
7 *145:6 0.000511171
8 *145:6 *172:10 7.91414e-06
9 *601:B *556:B 9.66585e-05
10 *605:A *145:6 2.10502e-05
11 *605:B *145:23 5.82853e-05
12 *130:23 *556:B 2.33782e-05
13 *130:23 *145:23 7.67664e-05
14 *144:81 *556:B 6.55954e-05
15 *144:81 *145:23 0.000141344
*RES
1 *675:Q *145:6 25.5271 
2 *145:6 *145:12 32.61 
3 *145:12 *544:A 23 
4 *145:6 *145:23 4.82643 
5 *145:23 *556:B 24.5743 
6 *145:23 *587:A 23 
*END

*D_NET *146 0.0130527
*CONN
*I *622:B I *D sky130_fd_sc_hd__nand3_1
*I *560:A1 I *D sky130_fd_sc_hd__o21a_1
*I *573:B I *D sky130_fd_sc_hd__nand2_1
*I *564:A I *D sky130_fd_sc_hd__nor2_1
*I *542:A I *D sky130_fd_sc_hd__inv_6
*I *610:A I *D sky130_fd_sc_hd__nor2_1
*I *609:A1 I *D sky130_fd_sc_hd__a21oi_1
*I *601:A I *D sky130_fd_sc_hd__nor2_1
*I *676:Q O *D sky130_fd_sc_hd__dfrtp_4
*CAP
1 *622:B 2.18824e-05
2 *560:A1 0
3 *573:B 0.000137378
4 *564:A 0.000372375
5 *542:A 0
6 *610:A 0.000126228
7 *609:A1 1.13218e-05
8 *601:A 0
9 *676:Q 0.000923424
10 *146:98 0.000404782
11 *146:59 0.000923563
12 *146:33 0.000282056
13 *146:29 0.00140606
14 *146:16 0.000807784
15 *146:14 0.000565073
16 *146:10 0.00111972
17 *146:8 0.00132997
18 *543:B *146:98 2.1707e-05
19 *560:B1 *146:98 0.000275828
20 *564:B *564:A 0.000269806
21 *567:A *564:A 4.47928e-05
22 *572:B *146:16 0
23 *590:A1 *573:B 0.000237027
24 *590:A1 *146:14 1.24376e-05
25 *590:A2 *146:14 2.03764e-06
26 *590:B1 *146:8 4.94011e-05
27 *590:B1 *146:10 0.000102544
28 *590:B1 *146:14 1.35714e-05
29 *591:A3 *146:98 2.48075e-05
30 *591:C1 *146:98 0.000246023
31 *592:A *146:10 6.8667e-05
32 *600:B *146:98 3.22879e-05
33 *604:B1 *573:B 2.66471e-05
34 *606:A1 *564:A 0.000366666
35 *606:A1 *146:59 0
36 *606:A2 *564:A 6.97831e-05
37 *622:C *146:10 5.58003e-05
38 *623:A *146:14 0.00030864
39 *676:RESET_B *146:8 0.000183057
40 *40:22 *146:59 0.000135329
41 *41:10 *146:98 4.6318e-06
42 *44:10 *573:B 3.46013e-05
43 *44:10 *146:16 0.000134517
44 *47:10 *610:A 2.64616e-05
45 *58:10 *573:B 0.000132671
46 *90:49 *609:A1 1.12863e-05
47 *90:49 *146:29 0.00046831
48 *90:49 *146:33 0.000193944
49 *90:72 *609:A1 2.42715e-05
50 *90:72 *610:A 0.000166996
51 *90:92 *146:98 0.000306021
52 *101:29 *146:98 6.35028e-05
53 *103:17 *146:98 2.29835e-05
54 *112:19 *146:98 2.93845e-05
55 *118:14 *146:59 8.65782e-05
56 *136:12 *609:A1 9.85586e-06
57 *136:12 *610:A 7.42262e-05
58 *136:12 *146:33 2.42683e-05
59 *136:12 *146:59 1.24585e-05
60 *142:185 *146:8 0.000247254
*RES
1 *676:Q *146:8 36.5057 
2 *146:8 *146:10 5.38571 
3 *146:10 *146:14 19.4329 
4 *146:14 *146:16 1.90571 
5 *146:16 *601:A 38 
6 *146:16 *146:29 9.68747 
7 *146:29 *146:33 8.39947 
8 *146:33 *609:A1 38.3211 
9 *146:33 *610:A 41.0554 
10 *146:29 *146:59 32.1246 
11 *146:59 *542:A 23 
12 *146:59 *564:A 32.86 
13 *146:14 *573:B 41.9979 
14 *146:10 *146:98 41.3307 
15 *146:98 *560:A1 23 
16 *146:8 *622:B 23.4971 
*END

*D_NET *147 0.000544795
*CONN
*I *576:B I *D sky130_fd_sc_hd__nand2_1
*I *692:X O *D sky130_fd_sc_hd__clkbuf_1
*CAP
1 *576:B 0.000157946
2 *692:X 0.000157946
3 *576:B *158:16 0.000228903
*RES
1 *692:X *576:B 49.8529 
*END

*D_NET *148 0.00457636
*CONN
*I *711:A I *D sky130_fd_sc_hd__clkbuf_1
*I *618:Y O *D sky130_fd_sc_hd__a211oi_1
*CAP
1 *711:A 0
2 *618:Y 4.34638e-05
3 *148:18 0.00144192
4 *148:10 0.00148538
5 *148:18 *551:A 0
6 *148:18 *157:8 3.34276e-06
7 *148:18 *179:14 0
8 *577:A2 *148:10 0
9 *577:A2 *148:18 5.93381e-05
10 *618:A1 *148:10 2.93845e-05
11 *618:B1 *148:10 3.80863e-05
12 *640:B *148:18 0.000170183
13 *641:A *148:18 0.000229395
14 *672:D *148:18 1.24376e-05
15 *17:96 *148:18 0.00016142
16 *17:106 *148:18 0.000114656
17 *31:8 *148:18 0.000183547
18 *59:10 *148:18 0
19 *59:14 *148:18 1.12268e-05
20 *59:89 *148:18 2.97099e-05
21 *59:102 *148:18 5.67018e-05
22 *82:22 *148:18 0
23 *85:10 *148:18 8.82154e-05
24 *86:10 *148:18 1.06693e-05
25 *86:12 *148:18 5.83085e-05
26 *124:10 *148:18 0.000343064
27 *125:31 *148:10 5.90675e-06
*RES
1 *618:Y *148:10 39.1186 
2 *148:10 *148:18 45.2429 
3 *148:18 *711:A 23 
*END

*D_NET *149 0.00144214
*CONN
*I *700:A I *D sky130_fd_sc_hd__buf_4
*I *667:Q O *D sky130_fd_sc_hd__dfrtp_1
*CAP
1 *700:A 0
2 *667:Q 0.000357863
3 *149:10 0.000357863
4 clk_gate_en *149:10 0
5 pwr_gate_en *149:10 0
6 *667:RESET_B *149:10 0.00010018
7 *9:16 *149:10 4.09352e-05
8 *17:156 *149:10 0.000168754
9 *17:158 *149:10 0.00030457
10 *17:160 *149:10 0.000111971
*RES
1 *667:Q *149:10 46.6379 
2 *149:10 *700:A 38 
*END

*D_NET *150 0.00041569
*CONN
*I *701:A I *D sky130_fd_sc_hd__clkbuf_2
*I *672:Q O *D sky130_fd_sc_hd__dfrtp_1
*CAP
1 *701:A 0
2 *672:Q 0.000207845
3 *150:10 0.000207845
4 pwr_state[0] *150:10 0
*RES
1 *672:Q *150:10 41.3557 
2 *150:10 *701:A 38 
*END

*D_NET *151 0.000369901
*CONN
*I *702:A I *D sky130_fd_sc_hd__clkbuf_2
*I *673:Q O *D sky130_fd_sc_hd__dfrtp_1
*CAP
1 *702:A 0
2 *673:Q 0.000184951
3 *151:10 0.000184951
*RES
1 *673:Q *151:10 40.6514 
2 *151:10 *702:A 38 
*END

*D_NET *152 0.000214168
*CONN
*I *703:A I *D sky130_fd_sc_hd__buf_2
*I *671:Q O *D sky130_fd_sc_hd__dfrtp_1
*CAP
1 *703:A 0
2 *671:Q 0.000107084
3 *152:8 0.000107084
4 *16:10 *152:8 0
*RES
1 *671:Q *152:8 39.9057 
2 *152:8 *703:A 38 
*END

*D_NET *153 0.000910175
*CONN
*I *704:A I *D sky130_fd_sc_hd__buf_4
*I *668:Q O *D sky130_fd_sc_hd__dfrtp_1
*CAP
1 *704:A 0
2 *668:Q 0.000381866
3 *153:10 0.000381866
4 *668:CLK *153:10 9.84794e-05
5 *140:12 *153:10 4.79641e-05
6 *142:65 *153:10 0
7 *142:76 *153:10 0
*RES
1 *668:Q *153:10 43.7379 
2 *153:10 *704:A 38 
*END

*D_NET *154 0.000199339
*CONN
*I *705:A I *D sky130_fd_sc_hd__buf_2
*I *670:Q O *D sky130_fd_sc_hd__dfrtp_1
*CAP
1 *705:A 0
2 *670:Q 9.96696e-05
3 *154:8 9.96696e-05
*RES
1 *670:Q *154:8 39.9057 
2 *154:8 *705:A 38 
*END

*D_NET *155 0.000214272
*CONN
*I *706:A I *D sky130_fd_sc_hd__buf_2
*I *669:Q O *D sky130_fd_sc_hd__dfrtp_1
*CAP
1 *706:A 0
2 *669:Q 8.65725e-05
3 *155:8 8.65725e-05
4 *21:8 *155:8 4.11274e-05
*RES
1 *669:Q *155:8 39.9057 
2 *155:8 *706:A 38 
*END

*D_NET *156 0.0018977
*CONN
*I *712:A I *D sky130_fd_sc_hd__buf_1
*I *558:Y O *D sky130_fd_sc_hd__nor2_1
*CAP
1 *712:A 0.000148257
2 *558:Y 0.000453106
3 *156:10 0.000601363
4 *712:A *159:10 0.000101226
5 *712:A *176:66 7.53303e-06
6 *156:10 *616:A2 0
7 *156:10 *159:10 0
8 *550:A *712:A 5.58012e-05
9 *550:B *712:A 1.24376e-05
10 *570:B *156:10 7.71928e-05
11 *571:A *156:10 4.2812e-06
12 *616:A1 *156:10 0
13 *616:B1 *156:10 6.43168e-05
14 *46:27 *156:10 0
15 *96:8 *712:A 1.46205e-05
16 *99:10 *156:10 0.000346271
17 *136:28 *156:10 1.12919e-05
*RES
1 *558:Y *156:10 46.7621 
2 *156:10 *712:A 41.3764 
*END

*D_NET *157 0.00414243
*CONN
*I *699:A I *D sky130_fd_sc_hd__clkbuf_2
*I *711:X O *D sky130_fd_sc_hd__clkbuf_1
*CAP
1 *699:A 0
2 *711:X 9.69076e-05
3 *157:14 0.00131937
4 *157:8 0.00141628
5 *157:14 *159:65 0.000620173
6 *157:14 *177:14 0.000292741
7 *659:RESET_B *157:14 0
8 *672:D *157:8 6.30277e-06
9 *22:10 *157:14 0.000143655
10 *59:47 *157:14 0.000243658
11 *148:18 *157:8 3.34276e-06
*RES
1 *711:X *157:8 39.0979 
2 *157:8 *157:14 42.8814 
3 *157:14 *699:A 23 
*END

*D_NET *158 0.00344363
*CONN
*I *576:A I *D sky130_fd_sc_hd__nand2_1
*I *693:X O *D sky130_fd_sc_hd__clkbuf_1
*CAP
1 *576:A 0
2 *693:X 4.96719e-05
3 *158:16 0.00154439
4 *158:8 0.00159406
5 *576:B *158:16 0.000228903
6 *692:A *158:16 2.66127e-05
*RES
1 *693:X *158:8 38.6214 
2 *158:8 *158:16 46.2371 
3 *158:16 *576:A 23 
*END

*D_NET *159 0.00937134
*CONN
*I *707:A I *D sky130_fd_sc_hd__clkbuf_2
*I *643:A I *D sky130_fd_sc_hd__nand3_1
*I *620:A I *D sky130_fd_sc_hd__nand2_1
*I *619:B I *D sky130_fd_sc_hd__or2_1
*I *712:X O *D sky130_fd_sc_hd__buf_1
*CAP
1 *707:A 0
2 *643:A 0
3 *620:A 0.00010754
4 *619:B 0
5 *712:X 0.000172942
6 *159:65 0.000491038
7 *159:52 0.0013654
8 *159:44 0.00213749
9 *159:31 0.000560369
10 *159:27 0.000619943
11 *159:10 0.000621117
12 *159:10 *616:A2 5.03449e-05
13 *159:10 *176:38 6.07611e-06
14 *159:27 *176:36 3.83778e-05
15 *159:27 *176:38 2.3529e-05
16 *159:31 *536:B 9.88574e-06
17 *159:52 *180:10 5.75756e-06
18 *550:A *159:10 8.68427e-06
19 *621:B *620:A 0
20 *629:B *159:31 9.84851e-05
21 *630:B *159:27 2.55642e-05
22 *642:B *159:52 4.2651e-05
23 *672:RESET_B *159:44 0.000245183
24 *672:RESET_B *159:65 0.000289649
25 *712:A *159:10 0.000101226
26 *3:13 *159:44 7.73867e-05
27 *3:13 *159:65 1.7992e-05
28 *17:122 *159:27 0.00022034
29 *49:20 *159:27 0
30 *49:20 *159:44 0.000115038
31 *51:10 *159:27 0.000147391
32 *52:6 *620:A 5.67058e-05
33 *52:6 *159:31 8.52481e-05
34 *52:23 *159:27 9.48381e-06
35 *52:23 *159:44 6.7733e-05
36 *53:8 *620:A 1.76557e-05
37 *59:35 *159:52 0.000168678
38 *59:47 *159:65 9.27917e-05
39 *59:55 *159:44 2.90581e-05
40 *59:55 *159:52 5.14826e-05
41 *59:55 *159:65 0.000172603
42 *59:65 *620:A 0
43 *61:8 *159:44 7.64972e-05
44 *94:12 *159:27 0.000323831
45 *137:10 *159:65 0
46 *143:130 *159:65 0
47 *156:10 *159:10 0
48 *157:14 *159:65 0.000620173
*RES
1 *712:X *159:10 40.7757 
2 *159:10 *619:B 38 
3 *159:10 *159:27 39.1557 
4 *159:27 *159:31 17.5271 
5 *159:31 *620:A 24.9471 
6 *159:31 *159:44 23.5964 
7 *159:44 *159:52 48.6014 
8 *159:52 *643:A 38 
9 *159:44 *159:65 29.7071 
10 *159:65 *707:A 23 
*END

*D_NET *160 0.000503903
*CONN
*I *694:A I *D sky130_fd_sc_hd__clkbuf_1
*I *689:X O *D sky130_fd_sc_hd__dlygate4sd3_1
*CAP
1 *694:A 0
2 *689:X 0.000251951
3 *160:10 0.000251951
4 *13:9 *160:10 0
*RES
1 *689:X *160:10 41.8321 
2 *160:10 *694:A 38 
*END

*D_NET *161 0.000173282
*CONN
*I *695:A I *D sky130_fd_sc_hd__clkbuf_1
*I *690:X O *D sky130_fd_sc_hd__dlygate4sd3_1
*CAP
1 *695:A 7.51264e-05
2 *690:X 7.51264e-05
3 *695:A *164:10 2.30292e-05
*RES
1 *690:X *695:A 47.5743 
*END

*D_NET *162 0.000323372
*CONN
*I *696:A I *D sky130_fd_sc_hd__clkbuf_1
*I *691:X O *D sky130_fd_sc_hd__dlygate4sd3_1
*CAP
1 *696:A 0.000161686
2 *691:X 0.000161686
*RES
1 *691:X *696:A 49.0036 
*END

*D_NET *163 0.000391761
*CONN
*I *680:D I *D sky130_fd_sc_hd__dfrtp_1
*I *694:X O *D sky130_fd_sc_hd__clkbuf_1
*CAP
1 *680:D 0.000169433
2 *694:X 0.000169433
3 *680:CLK *680:D 5.2894e-05
4 *17:170 *680:D 0
*RES
1 *694:X *680:D 48.5479 
*END

*D_NET *164 0.000540418
*CONN
*I *678:D I *D sky130_fd_sc_hd__dfrtp_1
*I *695:X O *D sky130_fd_sc_hd__clkbuf_1
*CAP
1 *678:D 0
2 *695:X 0.000258694
3 *164:10 0.000258694
4 *677:RESET_B *164:10 0
5 *695:A *164:10 2.30292e-05
*RES
1 *695:X *164:10 41.9564 
2 *164:10 *678:D 38 
*END

*D_NET *165 0.00136298
*CONN
*I *679:D I *D sky130_fd_sc_hd__dfrtp_1
*I *696:X O *D sky130_fd_sc_hd__clkbuf_1
*CAP
1 *679:D 0.000151918
2 *696:X 0.000231972
3 *165:10 0.00038389
4 *165:10 *173:10 0.000135682
5 *679:RESET_B *679:D 5.02764e-05
6 *17:184 *165:10 0
7 *26:20 *679:D 0.00026757
8 *26:20 *165:10 0
9 *142:33 *679:D 0.00014167
*RES
1 *696:X *165:10 42.2879 
2 *165:10 *679:D 43.3857 
*END

*D_NET *166 0.00410562
*CONN
*I *582:A I *D sky130_fd_sc_hd__inv_2
*I *697:X O *D sky130_fd_sc_hd__buf_1
*CAP
1 *582:A 0.000958396
2 *697:X 0
3 *166:10 0.00204644
4 *166:6 0.00108804
5 *697:A *166:10 1.27424e-05
*RES
1 *697:X *166:6 38 
2 *166:6 *166:10 36.6257 
3 *166:10 *582:A 39.82 
*END

*D_NET *167 0.00176694
*CONN
*I *677:D I *D sky130_fd_sc_hd__dfrtp_1
*I *698:X O *D sky130_fd_sc_hd__clkbuf_1
*CAP
1 *677:D 0
2 *698:X 0.000857264
3 *167:8 0.000857264
4 *677:CLK *167:8 2.30292e-05
5 *698:A *167:8 2.93845e-05
*RES
1 *698:X *167:8 34.1236 
2 *167:8 *677:D 23 
*END

*D_NET *168 0.000619858
*CONN
*I *708:A I *D sky130_fd_sc_hd__buf_4
*I *666:Q O *D sky130_fd_sc_hd__dfrtp_1
*CAP
1 *708:A 0
2 *666:Q 0.000309929
3 *168:8 0.000309929
4 *17:156 *168:8 0
5 *17:158 *168:8 0
*RES
1 *666:Q *168:8 42.7229 
2 *168:8 *708:A 38 
*END

*D_NET *169 0.000668361
*CONN
*I *709:A I *D sky130_fd_sc_hd__clkbuf_2
*I *657:Q O *D sky130_fd_sc_hd__dfstp_1
*CAP
1 *709:A 0
2 *657:Q 0.000334181
3 *169:10 0.000334181
4 *7:10 *169:10 0
5 *28:10 *169:10 0
*RES
1 *657:Q *169:10 43.9346 
2 *169:10 *709:A 38 
*END

*D_NET *170 0.00079565
*CONN
*I *674:D I *D sky130_fd_sc_hd__dfrtp_4
*I *575:Y O *D sky130_fd_sc_hd__inv_2
*CAP
1 *674:D 0.000218343
2 *575:Y 0.000135096
3 *170:8 0.000353439
4 *674:RESET_B *674:D 8.87722e-05
*RES
1 *575:Y *170:8 40.2579 
2 *170:8 *674:D 41.9564 
*END

*D_NET *171 0.00174716
*CONN
*I *675:D I *D sky130_fd_sc_hd__dfrtp_1
*I *593:X O *D sky130_fd_sc_hd__clkbuf_1
*CAP
1 *675:D 0.00011672
2 *593:X 0.000756858
3 *171:10 0.000873578
*RES
1 *593:X *171:10 48.7093 
2 *171:10 *675:D 39.5743 
*END

*D_NET *172 0.000911539
*CONN
*I *676:D I *D sky130_fd_sc_hd__dfrtp_4
*I *605:Y O *D sky130_fd_sc_hd__nand2_1
*CAP
1 *676:D 0
2 *605:Y 0.000381908
3 *172:10 0.000381908
4 *605:A *172:10 2.95423e-05
5 *676:RESET_B *172:10 0.000110267
6 *145:6 *172:10 7.91414e-06
*RES
1 *605:Y *172:10 43.51 
2 *172:10 *676:D 38 
*END

*D_NET *173 0.000886234
*CONN
*I *562:A I *D sky130_fd_sc_hd__inv_2
*I *684:Q O *D sky130_fd_sc_hd__dfrtp_1
*CAP
1 *562:A 3.19786e-05
2 *684:Q 0.000328981
3 *173:10 0.00036096
4 *17:196 *562:A 2.86326e-05
5 *17:196 *173:10 0
6 *165:10 *173:10 0.000135682
*RES
1 *684:Q *173:10 43.3443 
2 *173:10 *562:A 38.6214 
*END

*D_NET *174 0.00240409
*CONN
*I *559:A I *D sky130_fd_sc_hd__inv_2
*I *602:C I *D sky130_fd_sc_hd__nand3_1
*I *682:Q O *D sky130_fd_sc_hd__dfrtp_1
*CAP
1 *559:A 0
2 *602:C 0.000452647
3 *682:Q 0.000424303
4 *174:12 0.000452647
5 *174:10 0.000424303
6 *174:10 *565:A 3.22879e-05
7 *563:A *602:C 0
8 *566:C *602:C 5.41288e-05
9 *599:A *602:C 0.000198545
10 *17:200 *174:10 0.000129531
11 *17:213 *174:10 2.7237e-05
12 *107:8 *602:C 2.30292e-05
13 *109:10 *174:10 0.000185434
*RES
1 *682:Q *174:10 46.9486 
2 *174:10 *174:12 15 
3 *174:12 *602:C 31.6793 
4 *174:12 *559:A 23 
*END

*D_NET *175 0.000131565
*CONN
*I *565:A I *D sky130_fd_sc_hd__inv_2
*I *683:Q O *D sky130_fd_sc_hd__dfrtp_1
*CAP
1 *565:A 3.34947e-05
2 *683:Q 3.34947e-05
3 *17:200 *565:A 3.22879e-05
4 *174:10 *565:A 3.22879e-05
*RES
1 *683:Q *565:A 47.1186 
*END

*D_NET *176 0.00445873
*CONN
*I *549:A I *D sky130_fd_sc_hd__inv_2
*I *619:A I *D sky130_fd_sc_hd__or2_1
*I *616:A2 I *D sky130_fd_sc_hd__o211a_1
*I *620:B I *D sky130_fd_sc_hd__nand2_1
*I *536:B I *D sky130_fd_sc_hd__nand2_1
*I *658:Q O *D sky130_fd_sc_hd__dfrtp_1
*CAP
1 *549:A 0
2 *619:A 0
3 *616:A2 0.000172891
4 *620:B 3.20592e-05
5 *536:B 0.000399005
6 *658:Q 0
7 *176:66 0.000334888
8 *176:38 0.00019972
9 *176:36 0.000663828
10 *176:10 0.000633202
11 *176:4 0.000504249
12 *550:A *176:66 0.000274237
13 *616:A1 *616:A2 0.000167344
14 *616:B1 *616:A2 1.12349e-05
15 *629:B *536:B 2.98648e-05
16 *658:CLK *176:10 0.000102093
17 *658:CLK *176:36 6.24154e-05
18 *712:A *176:66 7.53303e-06
19 *49:20 *620:B 1.69668e-05
20 *49:20 *176:10 3.81391e-05
21 *51:10 *620:B 1.86973e-05
22 *51:10 *176:10 3.31683e-05
23 *53:8 *536:B 9.84851e-05
24 *94:8 *536:B 6.61835e-05
25 *96:8 *176:66 0.000100061
26 *136:28 *176:36 0
27 *136:28 *176:66 6.16439e-05
28 *143:25 *176:36 2.64616e-05
29 *143:33 *616:A2 1.01436e-05
30 *143:33 *176:36 0.000151907
31 *143:33 *176:38 5.15096e-05
32 *143:57 *176:36 6.25829e-05
33 *156:10 *616:A2 0
34 *159:10 *616:A2 5.03449e-05
35 *159:10 *176:38 6.07611e-06
36 *159:27 *176:36 3.83778e-05
37 *159:27 *176:38 2.3529e-05
38 *159:31 *536:B 9.88574e-06
*RES
1 *658:Q *176:4 23 
2 *176:4 *176:10 18.6043 
3 *176:10 *536:B 44.7114 
4 *176:10 *620:B 38.8493 
5 *176:4 *176:36 20.0129 
6 *176:36 *176:38 0.849286 
7 *176:38 *616:A2 42.5571 
8 *176:38 *619:A 38 
9 *176:36 *176:66 35.2821 
10 *176:66 *549:A 38 
*END

*D_NET *177 0.00226179
*CONN
*I *548:A I *D sky130_fd_sc_hd__inv_2
*I *536:A I *D sky130_fd_sc_hd__nand2_1
*I *659:Q O *D sky130_fd_sc_hd__dfrtp_1
*CAP
1 *548:A 0
2 *536:A 2.9043e-05
3 *659:Q 0.000215747
4 *177:14 0.000533944
5 *177:8 0.000720648
6 *631:A *177:14 0
7 *60:8 *177:14 0
8 *72:8 *177:8 1.83545e-05
9 *82:12 *536:A 5.79559e-05
10 *82:12 *177:14 5.56279e-05
11 *136:28 *177:14 0.000337724
12 *143:57 *177:14 0
13 *157:14 *177:14 0.000292741
*RES
1 *659:Q *177:8 40.5271 
2 *177:8 *177:14 25.9786 
3 *177:14 *536:A 23.6214 
4 *177:14 *548:A 23 
*END

*D_NET *178 0.00259916
*CONN
*I *535:B I *D sky130_fd_sc_hd__nor2_1
*I *579:B I *D sky130_fd_sc_hd__nand2_1
*I *633:A I *D sky130_fd_sc_hd__inv_2
*I *553:A I *D sky130_fd_sc_hd__or3_1
*I *585:A1 I *D sky130_fd_sc_hd__a21oi_1
*I *660:Q O *D sky130_fd_sc_hd__dfrtp_1
*CAP
1 *535:B 0.000108862
2 *579:B 5.74669e-06
3 *633:A 0
4 *553:A 0
5 *585:A1 0.000186472
6 *660:Q 0
7 *178:45 0.000185438
8 *178:34 0.000308275
9 *178:8 0.000291846
10 *178:6 0.000342819
11 *535:B *535:A 8.89395e-06
12 *535:B *579:A 7.33308e-05
13 *579:B *579:A 2.20903e-06
14 *17:106 *178:34 3.85802e-05
15 *30:8 *178:34 0
16 *59:22 *178:34 5.56356e-05
17 *59:22 *178:45 0.000347385
18 *82:12 *535:B 0.000168544
19 *82:12 *178:34 5.56356e-05
20 *82:12 *178:45 0.000378333
21 *98:26 *585:A1 1.16659e-05
22 *98:26 *178:8 2.94915e-05
23 *136:28 *585:A1 0
24 *136:28 *178:8 0
25 *136:28 *178:34 0
26 *141:33 *585:A1 0
*RES
1 *660:Q *178:6 38 
2 *178:6 *178:8 1.90571 
3 *178:8 *585:A1 41.3971 
4 *178:8 *553:A 38 
5 *178:6 *178:34 19.64 
6 *178:34 *633:A 23 
7 *178:34 *178:45 4.75393 
8 *178:45 *579:B 23.3521 
9 *178:45 *535:B 27.2464 
*END

*D_NET *179 0.00134884
*CONN
*I *551:A I *D sky130_fd_sc_hd__inv_2
*I *535:A I *D sky130_fd_sc_hd__nor2_1
*I *579:A I *D sky130_fd_sc_hd__nand2_1
*I *661:Q O *D sky130_fd_sc_hd__dfrtp_1
*CAP
1 *551:A 0.000102554
2 *535:A 1.33745e-05
3 *579:A 0.00012779
4 *661:Q 8.39717e-05
5 *179:14 0.00031208
6 *179:8 0.000357441
7 *535:B *535:A 8.89395e-06
8 *535:B *579:A 7.33308e-05
9 *579:B *579:A 2.20903e-06
10 *59:10 *551:A 3.18319e-05
11 *59:10 *179:14 1.007e-05
12 *82:12 *535:A 2.93104e-06
13 *82:12 *579:A 7.44161e-06
14 *82:12 *179:14 2.9853e-05
15 *82:22 *179:14 3.70187e-05
16 *84:10 *551:A 1.13812e-05
17 *122:20 *179:14 5.98148e-05
18 *123:8 *579:A 5.50106e-05
19 *123:8 *179:14 2.18409e-05
20 *148:18 *551:A 0
21 *148:18 *179:14 0
*RES
1 *661:Q *179:8 39.0979 
2 *179:8 *179:14 18.2521 
3 *179:14 *579:A 26.1589 
4 *179:14 *535:A 23.4971 
5 *179:8 *551:A 39.9057 
*END

*D_NET *180 0.00206778
*CONN
*I *538:B I *D sky130_fd_sc_hd__nor2_1
*I *643:B I *D sky130_fd_sc_hd__nand3_1
*I *642:A_N I *D sky130_fd_sc_hd__nand2b_1
*I *662:Q O *D sky130_fd_sc_hd__dfrtp_1
*CAP
1 *538:B 0.000252105
2 *643:B 0
3 *642:A_N 0
4 *662:Q 0.000345863
5 *180:21 0.000339821
6 *180:12 8.77157e-05
7 *180:10 0.000345863
8 *642:B *180:10 1.0092e-05
9 *644:B *180:21 0.000100486
10 *17:49 *180:10 0.000316949
11 *59:35 *180:10 1.63052e-05
12 *71:21 *538:B 9.79925e-05
13 *71:21 *180:21 4.21921e-05
14 *74:14 *538:B 2.00768e-05
15 *74:25 *538:B 3.32626e-05
16 *123:37 *538:B 5.3304e-05
17 *159:52 *180:10 5.75756e-06
*RES
1 *662:Q *180:10 43.3857 
2 *180:10 *180:12 15 
3 *180:12 *642:A_N 23 
4 *180:12 *180:21 2.07143 
5 *180:21 *643:B 23 
6 *180:21 *538:B 27.93 
*END

*D_NET *181 0.000641866
*CONN
*I *646:A I *D sky130_fd_sc_hd__inv_2
*I *538:A I *D sky130_fd_sc_hd__nor2_1
*I *663:Q O *D sky130_fd_sc_hd__dfrtp_1
*CAP
1 *646:A 0
2 *538:A 6.15324e-05
3 *663:Q 0.000170529
4 *181:12 6.15324e-05
5 *181:10 0.000170529
6 *663:RESET_B *181:10 5.41385e-05
7 *17:96 *181:10 4.09558e-05
8 *74:25 *538:A 8.26478e-05
*RES
1 *663:Q *181:10 41.0036 
2 *181:10 *181:12 15 
3 *181:12 *538:A 24.5743 
4 *181:12 *646:A 23 
*END

*D_NET *182 0.00290552
*CONN
*I *651:A I *D sky130_fd_sc_hd__or2_1
*I *539:A I *D sky130_fd_sc_hd__nor2_1
*I *652:B I *D sky130_fd_sc_hd__nand2_1
*I *664:Q O *D sky130_fd_sc_hd__dfrtp_1
*CAP
1 *651:A 0
2 *539:A 0
3 *652:B 6.69341e-05
4 *664:Q 0.00047678
5 *182:38 0.000125922
6 *182:27 0.000141177
7 *182:10 0.000412273
8 *182:6 0.000806863
9 *654:B *182:27 0.000166742
10 *655:B *182:27 6.51997e-06
11 *664:D *652:B 6.17437e-06
12 *664:D *182:10 0.000113985
13 *664:RESET_B *182:6 0.00014006
14 *35:10 *182:27 2.95423e-05
15 *74:25 *652:B 3.28357e-06
16 *78:8 *652:B 0.000100477
17 *78:8 *182:10 0.000135037
18 *79:10 *182:27 3.673e-05
19 *80:10 *182:27 5.75756e-06
20 *85:10 *182:27 3.26241e-05
21 *143:101 *182:27 9.86322e-05
*RES
1 *664:Q *182:6 29.3386 
2 *182:6 *182:10 4.45357 
3 *182:10 *652:B 24.595 
4 *182:10 *182:27 34.2879 
5 *182:27 *539:A 23 
6 *182:6 *182:38 31.5536 
7 *182:38 *651:A 23 
*END

*D_NET *183 0.00210733
*CONN
*I *655:A I *D sky130_fd_sc_hd__xor2_1
*I *539:B I *D sky130_fd_sc_hd__nor2_1
*I *665:Q O *D sky130_fd_sc_hd__dfrtp_1
*CAP
1 *655:A 0
2 *539:B 0.00032939
3 *665:Q 0.000540638
4 *183:21 0.000107136
5 *183:6 0.000977165
6 *665:RESET_B *183:6 5.1357e-05
7 *35:10 *539:B 5.481e-05
8 *143:101 *539:B 4.6834e-05
*RES
1 *665:Q *183:6 30.2914 
2 *183:6 *539:B 27.8057 
3 *183:6 *183:21 31.9057 
4 *183:21 *655:A 23 
*END

*D_NET *184 0.00225194
*CONN
*I *681:D I *D sky130_fd_sc_hd__dfrtp_1
*I *677:Q O *D sky130_fd_sc_hd__dfrtp_1
*CAP
1 *681:D 0.000350942
2 *677:Q 0.000765979
3 *184:10 0.00111692
4 *184:10 *185:10 0
5 *677:RESET_B *184:10 1.19201e-05
6 *681:CLK *681:D 6.17437e-06
7 *17:227 *184:10 0
*RES
1 *677:Q *184:10 49.9729 
2 *184:10 *681:D 43.3857 
*END

*D_NET *185 0.000786379
*CONN
*I *682:D I *D sky130_fd_sc_hd__dfrtp_1
*I *678:Q O *D sky130_fd_sc_hd__dfrtp_1
*CAP
1 *682:D 0
2 *678:Q 0.000310529
3 *185:10 0.000310529
4 *677:CLK *185:10 2.39877e-05
5 *142:14 *185:10 2.64173e-05
6 *142:29 *185:10 0.000114916
7 *184:10 *185:10 0
*RES
1 *678:Q *185:10 44.09 
2 *185:10 *682:D 38 
*END

*D_NET *186 0.00076859
*CONN
*I *683:D I *D sky130_fd_sc_hd__dfrtp_1
*I *679:Q O *D sky130_fd_sc_hd__dfrtp_1
*CAP
1 *683:D 9.68674e-05
2 *679:Q 0.000121359
3 *186:8 0.000218227
4 *17:196 *683:D 0.000180218
5 *26:20 *186:8 4.32372e-05
6 *142:138 *186:8 0.000108681
*RES
1 *679:Q *186:8 40.61 
2 *186:8 *683:D 40.0507 
*END

*D_NET *187 0.000607467
*CONN
*I *684:D I *D sky130_fd_sc_hd__dfrtp_1
*I *680:Q O *D sky130_fd_sc_hd__dfrtp_1
*CAP
1 *684:D 0.000190774
2 *680:Q 0.000190774
3 *684:CLK *684:D 0.000182793
4 *17:170 *684:D 4.31254e-05
*RES
1 *680:Q *684:D 49.9979 
*END

*D_NET *188 0.00163319
*CONN
*I *591:A2 I *D sky130_fd_sc_hd__o311a_1
*I *568:A I *D sky130_fd_sc_hd__inv_2
*I *681:Q O *D sky130_fd_sc_hd__dfrtp_1
*CAP
1 *591:A2 0
2 *568:A 3.80995e-05
3 *681:Q 8.63323e-05
4 *188:27 0.000275757
5 *188:12 0.000627051
6 *188:8 0.000399527
7 *17:237 *188:8 7.03766e-05
8 *17:237 *188:27 0
9 *42:18 *188:27 5.5792e-05
10 *103:17 *188:27 0
11 *134:10 *188:27 2.19667e-05
12 *144:69 *188:27 5.82853e-05
*RES
1 *681:Q *188:8 39.9057 
2 *188:8 *188:12 20.3857 
3 *188:12 *568:A 23.6214 
4 *188:12 *188:27 35.1371 
5 *188:27 *591:A2 23 
*END
