*SPEF "ieee 1481-1999"
*DESIGN "pmu_fsm"
*DATE "03:02:26 Tuesday October 14, 2025"
*VENDOR "The OpenROAD Project"
*PROGRAM "OpenROAD"
*VERSION "b16bda7e82721d10566ff7e2b68f1ff0be9f9e38"
*DESIGN_FLOW "NAME_SCOPE LOCAL" "PIN_CAP NONE"
*DIVIDER /
*DELIMITER :
*BUS_DELIMITER []
*T_UNIT 1 NS
*C_UNIT 1 PF
*R_UNIT 1 OHM
*L_UNIT 1 HENRY

*NAME_MAP
*3 clk
*4 clk_gate_en
*5 clk_stable
*6 net21
*7 dvfs_ctrl[1]
*8 error
*9 pwr_gate_en
*10 pwr_stable
*11 pwr_state[0]
*12 pwr_state[1]
*13 req_idle
*14 req_off
*15 req_sleep
*16 reset_ctrl
*17 reset_n
*18 retention_en
*19 retention_ready
*20 retention_restore
*21 retention_save
*22 seq_busy
*23 wake_up
*24 _000_
*25 _001_
*26 _002_
*27 _003_
*28 _004_
*29 _005_
*30 _006_
*31 _007_
*32 _008_
*33 _009_
*34 _010_
*35 _011_
*36 _012_
*37 _013_
*38 _014_
*39 _015_
*40 _016_
*41 _017_
*42 _018_
*43 _019_
*44 _020_
*45 _021_
*46 _022_
*47 _023_
*48 _024_
*49 _025_
*50 _026_
*51 _027_
*52 _028_
*53 _029_
*54 _030_
*55 _031_
*56 _032_
*57 _033_
*58 _034_
*59 _035_
*60 _036_
*61 _037_
*62 _038_
*63 _039_
*64 _040_
*65 _041_
*66 _042_
*67 _043_
*68 _044_
*69 _045_
*70 _046_
*71 _047_
*72 _048_
*73 _049_
*74 _050_
*75 _051_
*76 _052_
*77 _053_
*78 _054_
*79 _055_
*80 _056_
*81 _057_
*82 _058_
*83 _059_
*84 _060_
*85 _061_
*86 _062_
*87 _063_
*88 _064_
*89 _065_
*90 _066_
*91 _067_
*92 _068_
*93 _069_
*94 _070_
*95 _071_
*96 _072_
*97 _073_
*98 _074_
*99 _075_
*100 _076_
*101 _077_
*102 _078_
*103 _079_
*104 _080_
*105 _081_
*106 _082_
*107 _083_
*108 _084_
*109 _085_
*110 _086_
*111 _087_
*112 _088_
*113 _089_
*114 _090_
*115 _091_
*116 _092_
*117 _093_
*118 _094_
*119 _095_
*120 _096_
*121 _097_
*122 _098_
*123 _099_
*124 _100_
*125 _101_
*126 _102_
*127 _103_
*128 _104_
*129 _105_
*130 _106_
*131 _107_
*132 _108_
*133 _109_
*134 _110_
*135 _111_
*136 _112_
*137 _113_
*138 _114_
*139 _115_
*140 _116_
*141 clknet_0_clk
*142 clknet_1_0__leaf_clk
*143 clknet_1_1__leaf_clk
*144 curr_state\[0\]
*145 curr_state\[1\]
*146 curr_state\[2\]
*147 net1
*148 net10
*149 net11
*150 net12
*151 net13
*152 net14
*153 net15
*154 net16
*155 net17
*156 net18
*157 net19
*158 net2
*159 net20
*160 net22
*161 net23
*162 net24
*163 net3
*164 net4
*165 net5
*166 net6
*167 net7
*168 net8
*169 net9
*170 next_state\[0\]
*171 next_state\[1\]
*172 next_state\[2\]
*173 req_idle_sync
*174 req_off_sync
*175 req_sleep_sync
*176 seq_timer\[0\]
*177 seq_timer\[1\]
*178 seq_timer\[2\]
*179 seq_timer\[3\]
*180 seq_timer\[4\]
*181 seq_timer\[5\]
*182 seq_timer\[6\]
*183 seq_timer\[7\]
*184 sync_stage1\[0\]
*185 sync_stage1\[1\]
*186 sync_stage1\[2\]
*187 sync_stage1\[3\]
*188 wake_up_sync
*189 FILLER_0_0_105
*190 FILLER_0_0_111
*191 FILLER_0_0_113
*192 FILLER_0_0_121
*193 FILLER_0_0_126
*194 FILLER_0_0_27
*195 FILLER_0_0_3
*196 FILLER_0_0_52
*197 FILLER_0_0_65
*198 FILLER_0_10_100
*199 FILLER_0_10_112
*200 FILLER_0_10_124
*201 FILLER_0_10_18
*202 FILLER_0_10_25
*203 FILLER_0_10_29
*204 FILLER_0_10_33
*205 FILLER_0_10_37
*206 FILLER_0_10_41
*207 FILLER_0_10_53
*208 FILLER_0_10_57
*209 FILLER_0_10_7
*210 FILLER_0_10_88
*211 FILLER_0_11_109
*212 FILLER_0_11_11
*213 FILLER_0_11_113
*214 FILLER_0_11_120
*215 FILLER_0_11_124
*216 FILLER_0_11_17
*217 FILLER_0_11_23
*218 FILLER_0_11_27
*219 FILLER_0_11_3
*220 FILLER_0_11_33
*221 FILLER_0_11_37
*222 FILLER_0_11_49
*223 FILLER_0_11_55
*224 FILLER_0_11_57
*225 FILLER_0_11_85
*226 FILLER_0_11_97
*227 FILLER_0_12_100
*228 FILLER_0_12_112
*229 FILLER_0_12_124
*230 FILLER_0_12_18
*231 FILLER_0_12_26
*232 FILLER_0_12_37
*233 FILLER_0_12_49
*234 FILLER_0_12_6
*235 FILLER_0_12_61
*236 FILLER_0_12_67
*237 FILLER_0_12_83
*238 FILLER_0_12_88
*239 FILLER_0_13_103
*240 FILLER_0_13_111
*241 FILLER_0_13_113
*242 FILLER_0_13_125
*243 FILLER_0_13_24
*244 FILLER_0_13_28
*245 FILLER_0_13_43
*246 FILLER_0_13_83
*247 FILLER_0_13_87
*248 FILLER_0_13_91
*249 FILLER_0_14_109
*250 FILLER_0_14_121
*251 FILLER_0_14_127
*252 FILLER_0_14_29
*253 FILLER_0_14_3
*254 FILLER_0_14_7
*255 FILLER_0_14_80
*256 FILLER_0_14_85
*257 FILLER_0_14_97
*258 FILLER_0_15_102
*259 FILLER_0_15_110
*260 FILLER_0_15_113
*261 FILLER_0_15_125
*262 FILLER_0_15_18
*263 FILLER_0_15_32
*264 FILLER_0_15_44
*265 FILLER_0_15_51
*266 FILLER_0_15_55
*267 FILLER_0_15_57
*268 FILLER_0_15_68
*269 FILLER_0_15_7
*270 FILLER_0_15_90
*271 FILLER_0_16_109
*272 FILLER_0_16_121
*273 FILLER_0_16_127
*274 FILLER_0_16_19
*275 FILLER_0_16_23
*276 FILLER_0_16_27
*277 FILLER_0_16_29
*278 FILLER_0_16_37
*279 FILLER_0_16_51
*280 FILLER_0_16_58
*281 FILLER_0_16_7
*282 FILLER_0_16_72
*283 FILLER_0_16_85
*284 FILLER_0_16_97
*285 FILLER_0_17_106
*286 FILLER_0_17_113
*287 FILLER_0_17_125
*288 FILLER_0_17_23
*289 FILLER_0_17_28
*290 FILLER_0_17_36
*291 FILLER_0_17_41
*292 FILLER_0_17_53
*293 FILLER_0_17_57
*294 FILLER_0_17_64
*295 FILLER_0_17_70
*296 FILLER_0_17_82
*297 FILLER_0_17_86
*298 FILLER_0_17_94
*299 FILLER_0_18_107
*300 FILLER_0_18_119
*301 FILLER_0_18_127
*302 FILLER_0_18_15
*303 FILLER_0_18_22
*304 FILLER_0_18_29
*305 FILLER_0_18_3
*306 FILLER_0_18_41
*307 FILLER_0_18_53
*308 FILLER_0_18_59
*309 FILLER_0_18_66
*310 FILLER_0_18_85
*311 FILLER_0_19_104
*312 FILLER_0_19_113
*313 FILLER_0_19_125
*314 FILLER_0_19_13
*315 FILLER_0_19_35
*316 FILLER_0_19_47
*317 FILLER_0_19_7
*318 FILLER_0_19_73
*319 FILLER_0_19_77
*320 FILLER_0_1_108
*321 FILLER_0_1_113
*322 FILLER_0_1_15
*323 FILLER_0_1_3
*324 FILLER_0_1_57
*325 FILLER_0_1_69
*326 FILLER_0_1_75
*327 FILLER_0_1_96
*328 FILLER_0_20_108
*329 FILLER_0_20_120
*330 FILLER_0_20_23
*331 FILLER_0_20_49
*332 FILLER_0_20_75
*333 FILLER_0_20_83
*334 FILLER_0_20_85
*335 FILLER_0_20_96
*336 FILLER_0_21_109
*337 FILLER_0_21_11
*338 FILLER_0_21_113
*339 FILLER_0_21_23
*340 FILLER_0_21_27
*341 FILLER_0_21_29
*342 FILLER_0_21_41
*343 FILLER_0_21_53
*344 FILLER_0_21_57
*345 FILLER_0_21_62
*346 FILLER_0_21_74
*347 FILLER_0_21_82
*348 FILLER_0_21_85
*349 FILLER_0_21_97
*350 FILLER_0_2_106
*351 FILLER_0_2_118
*352 FILLER_0_2_126
*353 FILLER_0_2_23
*354 FILLER_0_2_27
*355 FILLER_0_2_35
*356 FILLER_0_2_47
*357 FILLER_0_2_51
*358 FILLER_0_2_55
*359 FILLER_0_2_79
*360 FILLER_0_2_83
*361 FILLER_0_2_85
*362 FILLER_0_3_109
*363 FILLER_0_3_113
*364 FILLER_0_3_125
*365 FILLER_0_3_23
*366 FILLER_0_3_35
*367 FILLER_0_3_47
*368 FILLER_0_3_51
*369 FILLER_0_3_55
*370 FILLER_0_3_65
*371 FILLER_0_3_69
*372 FILLER_0_3_74
*373 FILLER_0_3_86
*374 FILLER_0_4_109
*375 FILLER_0_4_121
*376 FILLER_0_4_127
*377 FILLER_0_4_15
*378 FILLER_0_4_27
*379 FILLER_0_4_29
*380 FILLER_0_4_44
*381 FILLER_0_4_78
*382 FILLER_0_4_85
*383 FILLER_0_4_97
*384 FILLER_0_5_101
*385 FILLER_0_5_109
*386 FILLER_0_5_113
*387 FILLER_0_5_125
*388 FILLER_0_5_23
*389 FILLER_0_5_53
*390 FILLER_0_5_57
*391 FILLER_0_5_77
*392 FILLER_0_5_89
*393 FILLER_0_6_109
*394 FILLER_0_6_121
*395 FILLER_0_6_127
*396 FILLER_0_6_19
*397 FILLER_0_6_27
*398 FILLER_0_6_29
*399 FILLER_0_6_33
*400 FILLER_0_6_37
*401 FILLER_0_6_49
*402 FILLER_0_6_55
*403 FILLER_0_6_7
*404 FILLER_0_6_80
*405 FILLER_0_6_85
*406 FILLER_0_6_97
*407 FILLER_0_7_103
*408 FILLER_0_7_111
*409 FILLER_0_7_113
*410 FILLER_0_7_125
*411 FILLER_0_7_19
*412 FILLER_0_7_31
*413 FILLER_0_7_40
*414 FILLER_0_7_51
*415 FILLER_0_7_55
*416 FILLER_0_7_57
*417 FILLER_0_7_63
*418 FILLER_0_7_7
*419 FILLER_0_7_72
*420 FILLER_0_7_81
*421 FILLER_0_8_108
*422 FILLER_0_8_120
*423 FILLER_0_8_27
*424 FILLER_0_8_29
*425 FILLER_0_8_35
*426 FILLER_0_8_39
*427 FILLER_0_8_48
*428 FILLER_0_8_55
*429 FILLER_0_8_59
*430 FILLER_0_8_64
*431 FILLER_0_8_71
*432 FILLER_0_8_82
*433 FILLER_0_9_108
*434 FILLER_0_9_113
*435 FILLER_0_9_125
*436 FILLER_0_9_33
*437 FILLER_0_9_41
*438 FILLER_0_9_45
*439 FILLER_0_9_57
*440 FILLER_0_9_79
*441 FILLER_0_9_84
*442 FILLER_0_9_96
*443 PHY_EDGE_ROW_0_Left_22
*444 PHY_EDGE_ROW_0_Right_0
*445 PHY_EDGE_ROW_10_Left_32
*446 PHY_EDGE_ROW_10_Right_10
*447 PHY_EDGE_ROW_11_Left_33
*448 PHY_EDGE_ROW_11_Right_11
*449 PHY_EDGE_ROW_12_Left_34
*450 PHY_EDGE_ROW_12_Right_12
*451 PHY_EDGE_ROW_13_Left_35
*452 PHY_EDGE_ROW_13_Right_13
*453 PHY_EDGE_ROW_14_Left_36
*454 PHY_EDGE_ROW_14_Right_14
*455 PHY_EDGE_ROW_15_Left_37
*456 PHY_EDGE_ROW_15_Right_15
*457 PHY_EDGE_ROW_16_Left_38
*458 PHY_EDGE_ROW_16_Right_16
*459 PHY_EDGE_ROW_17_Left_39
*460 PHY_EDGE_ROW_17_Right_17
*461 PHY_EDGE_ROW_18_Left_40
*462 PHY_EDGE_ROW_18_Right_18
*463 PHY_EDGE_ROW_19_Left_41
*464 PHY_EDGE_ROW_19_Right_19
*465 PHY_EDGE_ROW_1_Left_23
*466 PHY_EDGE_ROW_1_Right_1
*467 PHY_EDGE_ROW_20_Left_42
*468 PHY_EDGE_ROW_20_Right_20
*469 PHY_EDGE_ROW_21_Left_43
*470 PHY_EDGE_ROW_21_Right_21
*471 PHY_EDGE_ROW_2_Left_24
*472 PHY_EDGE_ROW_2_Right_2
*473 PHY_EDGE_ROW_3_Left_25
*474 PHY_EDGE_ROW_3_Right_3
*475 PHY_EDGE_ROW_4_Left_26
*476 PHY_EDGE_ROW_4_Right_4
*477 PHY_EDGE_ROW_5_Left_27
*478 PHY_EDGE_ROW_5_Right_5
*479 PHY_EDGE_ROW_6_Left_28
*480 PHY_EDGE_ROW_6_Right_6
*481 PHY_EDGE_ROW_7_Left_29
*482 PHY_EDGE_ROW_7_Right_7
*483 PHY_EDGE_ROW_8_Left_30
*484 PHY_EDGE_ROW_8_Right_8
*485 PHY_EDGE_ROW_9_Left_31
*486 PHY_EDGE_ROW_9_Right_9
*487 TAP_TAPCELL_ROW_0_44
*488 TAP_TAPCELL_ROW_0_45
*489 TAP_TAPCELL_ROW_0_46
*490 TAP_TAPCELL_ROW_0_47
*491 TAP_TAPCELL_ROW_10_66
*492 TAP_TAPCELL_ROW_10_67
*493 TAP_TAPCELL_ROW_11_68
*494 TAP_TAPCELL_ROW_11_69
*495 TAP_TAPCELL_ROW_12_70
*496 TAP_TAPCELL_ROW_12_71
*497 TAP_TAPCELL_ROW_13_72
*498 TAP_TAPCELL_ROW_13_73
*499 TAP_TAPCELL_ROW_14_74
*500 TAP_TAPCELL_ROW_14_75
*501 TAP_TAPCELL_ROW_15_76
*502 TAP_TAPCELL_ROW_15_77
*503 TAP_TAPCELL_ROW_16_78
*504 TAP_TAPCELL_ROW_16_79
*505 TAP_TAPCELL_ROW_17_80
*506 TAP_TAPCELL_ROW_17_81
*507 TAP_TAPCELL_ROW_18_82
*508 TAP_TAPCELL_ROW_18_83
*509 TAP_TAPCELL_ROW_19_84
*510 TAP_TAPCELL_ROW_19_85
*511 TAP_TAPCELL_ROW_1_48
*512 TAP_TAPCELL_ROW_1_49
*513 TAP_TAPCELL_ROW_20_86
*514 TAP_TAPCELL_ROW_20_87
*515 TAP_TAPCELL_ROW_21_88
*516 TAP_TAPCELL_ROW_21_89
*517 TAP_TAPCELL_ROW_21_90
*518 TAP_TAPCELL_ROW_21_91
*519 TAP_TAPCELL_ROW_2_50
*520 TAP_TAPCELL_ROW_2_51
*521 TAP_TAPCELL_ROW_3_52
*522 TAP_TAPCELL_ROW_3_53
*523 TAP_TAPCELL_ROW_4_54
*524 TAP_TAPCELL_ROW_4_55
*525 TAP_TAPCELL_ROW_5_56
*526 TAP_TAPCELL_ROW_5_57
*527 TAP_TAPCELL_ROW_6_58
*528 TAP_TAPCELL_ROW_6_59
*529 TAP_TAPCELL_ROW_7_60
*530 TAP_TAPCELL_ROW_7_61
*531 TAP_TAPCELL_ROW_8_62
*532 TAP_TAPCELL_ROW_8_63
*533 TAP_TAPCELL_ROW_9_64
*534 TAP_TAPCELL_ROW_9_65
*535 _117_
*536 _118_
*537 _119_
*538 _120_
*539 _121_
*540 _122_
*541 _123_
*542 _124_
*543 _125_
*544 _126_
*545 _127_
*546 _128_
*547 _129_
*548 _130_
*549 _131_
*550 _132_
*551 _133_
*552 _134_
*553 _135_
*554 _136_
*555 _137_
*556 _138_
*557 _139_
*558 _140_
*559 _141_
*560 _142_
*561 _143_
*562 _144_
*563 _145_
*564 _146_
*565 _147_
*566 _148_
*567 _149_
*568 _150_
*569 _151_
*570 _152_
*571 _153_
*572 _154_
*573 _155_
*574 _156_
*575 _157_
*576 _158_
*577 _159_
*578 _160_
*579 _161_
*580 _162_
*581 _163_
*582 _164_
*583 _165_
*584 _166_
*585 _167_
*586 _168_
*587 _169_
*588 _170_
*589 _171_
*590 _172_
*591 _173_
*592 _174_
*593 _175_
*594 _176_
*595 _177_
*596 _178_
*597 _179_
*598 _180_
*599 _181_
*600 _182_
*601 _183_
*602 _184_
*603 _185_
*604 _186_
*605 _187_
*606 _188_
*607 _189_
*608 _190_
*609 _191_
*610 _192_
*611 _193_
*612 _194_
*613 _195_
*614 _196_
*615 _197_
*616 _198_
*617 _199_
*618 _200_
*619 _201_
*620 _202_
*621 _203_
*622 _204_
*623 _205_
*624 _206_
*625 _207_
*626 _208_
*627 _209_
*628 _210_
*629 _211_
*630 _212_
*631 _213_
*632 _214_
*633 _215_
*634 _216_
*635 _217_
*636 _218_
*637 _219_
*638 _220_
*639 _221_
*640 _222_
*641 _223_
*642 _224_
*643 _225_
*644 _226_
*645 _227_
*646 _228_
*647 _229_
*648 _230_
*649 _231_
*650 _232_
*651 _233_
*652 _234_
*653 _235_
*654 _236_
*655 _237_
*656 _238_
*657 _239_
*658 _240_
*659 _241_
*660 _242_
*661 _243_
*662 _244_
*663 _245_
*664 _246_
*665 _247_
*666 _248_
*667 _249_
*668 _250_
*669 _251_
*670 _252_
*671 _253_
*672 _254_
*673 _255_
*674 _256_
*675 _257_
*676 _258_
*677 _259_
*678 _260_
*679 _261_
*680 _262_
*681 _263_
*682 _264_
*683 _265_
*684 _266_
*685 clkbuf_0_clk
*686 clkbuf_1_0__f_clk
*687 clkbuf_1_1__f_clk
*688 clkload0
*689 hold1
*690 hold2
*691 hold3
*692 input1
*693 input2
*694 input3
*695 input4
*696 input5
*697 input6
*698 input7
*699 output10
*700 output11
*701 output12
*702 output13
*703 output14
*704 output15
*705 output16
*706 output17
*707 output18
*708 output8
*709 output9
*710 pmu_fsm_21
*711 wire19
*712 wire20

*PORTS
clk I
clk_gate_en O
clk_stable I
dvfs_ctrl[0] O
dvfs_ctrl[1] O
error O
pwr_gate_en O
pwr_stable I
pwr_state[0] O
pwr_state[1] O
req_idle I
req_off I
req_sleep I
reset_ctrl O
reset_n I
retention_en O
retention_ready I
retention_restore O
retention_save O
seq_busy O
wake_up I

*D_NET *3 0.00725712
*CONN
*P clk I
*I *685:A I *D sky130_fd_sc_hd__clkbuf_16
*CAP
1 clk 0.00316751
2 *685:A 0.00316751
3 *685:A *630:A 1.87784e-05
4 *685:A *630:B 5.05066e-06
5 *685:A *631:B 0.000134123
6 *685:A *645:A 0.000115464
7 *685:A *659:RESET_B 0
8 *685:A *672:CLK 0
9 *685:A *687:A 0
10 *685:A *707:A 1.82476e-05
11 *685:A *59:47 0.000162325
12 *685:A *59:55 0.000332371
13 *685:A *128:8 5.14424e-05
14 *685:A *159:44 8.43085e-05
*RES
1 clk *685:A 28.2873 
*END

*D_NET *4 0.0040193
*CONN
*P clk_gate_en O
*I *708:X O *D sky130_fd_sc_hd__buf_4
*CAP
1 clk_gate_en 0.00155305
2 *708:X 0.00155305
3 clk_gate_en pwr_gate_en 0.000572097
4 clk_gate_en *666:D 0.000309362
5 clk_gate_en *700:A 0
6 clk_gate_en *17:156 0
7 clk_gate_en *142:45 3.17517e-05
8 clk_gate_en *142:65 0
9 clk_gate_en *142:76 0
10 clk_gate_en *142:95 0
*RES
1 *708:X clk_gate_en 26.314 
*END

*D_NET *5 0.000465811
*CONN
*P clk_stable I
*I *692:A I *D sky130_fd_sc_hd__clkbuf_1
*CAP
1 clk_stable 0.000219447
2 *692:A 0.000219447
3 *692:A *576:A 2.69174e-05
*RES
1 clk_stable *692:A 5.5535 
*END

*D_NET *6 0.000531065
*CONN
*P dvfs_ctrl[0] O
*I *710:HI O *D sky130_fd_sc_hd__conb_1
*CAP
1 dvfs_ctrl[0] 0.000265532
2 *710:HI 0.000265532
3 dvfs_ctrl[0] dvfs_ctrl[1] 0
4 dvfs_ctrl[0] reset_ctrl 0
*RES
1 *710:HI dvfs_ctrl[0] 6.8343 
*END

*D_NET *7 0.000632021
*CONN
*P dvfs_ctrl[1] O
*I *709:X O *D sky130_fd_sc_hd__clkbuf_2
*CAP
1 dvfs_ctrl[1] 0.000316011
2 *709:X 0.000316011
3 dvfs_ctrl[1] pwr_state[0] 0
4 dvfs_ctrl[1] *709:A 0
5 dvfs_ctrl[0] dvfs_ctrl[1] 0
*RES
1 *709:X dvfs_ctrl[1] 7.5993 
*END

*D_NET *8 0.00117272
*CONN
*P error O
*I *699:X O *D sky130_fd_sc_hd__clkbuf_2
*CAP
1 error 0.000532716
2 *699:X 0.000532716
3 error seq_busy 0.000107284
*RES
1 *699:X error 11.1035 
*END

*D_NET *9 0.00322138
*CONN
*P pwr_gate_en O
*I *700:X O *D sky130_fd_sc_hd__buf_4
*CAP
1 pwr_gate_en 0.0011749
2 *700:X 0.0011749
3 pwr_gate_en retention_en 0
4 pwr_gate_en *666:D 0.000258188
5 pwr_gate_en *689:A 0
6 pwr_gate_en *700:A 4.12979e-05
7 pwr_gate_en *17:160 0
8 pwr_gate_en *17:166 0
9 clk_gate_en pwr_gate_en 0.000572097
*RES
1 *700:X pwr_gate_en 18.7858 
*END

*D_NET *10 0.000462576
*CONN
*P pwr_stable I
*I *693:A I *D sky130_fd_sc_hd__clkbuf_1
*CAP
1 pwr_stable 0.000231288
2 *693:A 0.000231288
*RES
1 pwr_stable *693:A 5.5535 
*END

*D_NET *11 0.00055299
*CONN
*P pwr_state[0] O
*I *701:X O *D sky130_fd_sc_hd__clkbuf_2
*CAP
1 pwr_state[0] 0.000276495
2 *701:X 0.000276495
3 pwr_state[0] pwr_state[1] 0
4 pwr_state[0] *701:A 0
5 dvfs_ctrl[1] pwr_state[0] 0
*RES
1 *701:X pwr_state[0] 6.8637 
*END

*D_NET *12 0.000538393
*CONN
*P pwr_state[1] O
*I *702:X O *D sky130_fd_sc_hd__clkbuf_2
*CAP
1 pwr_state[1] 0.000269196
2 *702:X 0.000269196
3 pwr_state[1] seq_busy 0
4 pwr_state[0] pwr_state[1] 0
*RES
1 *702:X pwr_state[1] 6.8343 
*END

*D_NET *13 0.00127079
*CONN
*P req_idle I
*I *689:A I *D sky130_fd_sc_hd__dlygate4sd3_1
*CAP
1 req_idle 0.000632479
2 *689:A 0.000632479
3 *689:A *667:RESET_B 5.83121e-06
4 *689:A *694:A 0
5 *689:A *17:166 0
6 pwr_gate_en *689:A 0
*RES
1 req_idle *689:A 13.77 
*END

*D_NET *14 0.000787933
*CONN
*P req_off I
*I *690:A I *D sky130_fd_sc_hd__dlygate4sd3_1
*CAP
1 req_off 0.000387833
2 *690:A 0.000387833
3 *690:A *677:RESET_B 1.22676e-05
*RES
1 req_off *690:A 10.35 
*END

*D_NET *15 0.00144558
*CONN
*P req_sleep I
*I *691:A I *D sky130_fd_sc_hd__dlygate4sd3_1
*CAP
1 req_sleep 0.000722792
2 *691:A 0.000722792
*RES
1 req_sleep *691:A 19.975 
*END

*D_NET *16 0.000787394
*CONN
*P reset_ctrl O
*I *703:X O *D sky130_fd_sc_hd__buf_2
*CAP
1 reset_ctrl 0.000393697
2 *703:X 0.000393697
3 reset_ctrl retention_restore 0
4 reset_ctrl *703:A 0
5 dvfs_ctrl[0] reset_ctrl 0
*RES
1 *703:X reset_ctrl 8.0343 
*END

*D_NET *17 0.0314973
*CONN
*P reset_n I
*I *661:RESET_B I *D sky130_fd_sc_hd__dfrtp_1
*I *671:RESET_B I *D sky130_fd_sc_hd__dfrtp_1
*I *670:RESET_B I *D sky130_fd_sc_hd__dfrtp_1
*I *674:RESET_B I *D sky130_fd_sc_hd__dfrtp_4
*I *669:RESET_B I *D sky130_fd_sc_hd__dfrtp_1
*I *668:RESET_B I *D sky130_fd_sc_hd__dfrtp_1
*I *666:RESET_B I *D sky130_fd_sc_hd__dfrtp_1
*I *667:RESET_B I *D sky130_fd_sc_hd__dfrtp_1
*I *680:RESET_B I *D sky130_fd_sc_hd__dfrtp_1
*I *679:RESET_B I *D sky130_fd_sc_hd__dfrtp_1
*I *683:RESET_B I *D sky130_fd_sc_hd__dfrtp_1
*I *682:RESET_B I *D sky130_fd_sc_hd__dfrtp_1
*I *676:RESET_B I *D sky130_fd_sc_hd__dfrtp_4
*I *675:RESET_B I *D sky130_fd_sc_hd__dfrtp_1
*I *681:RESET_B I *D sky130_fd_sc_hd__dfrtp_1
*I *677:RESET_B I *D sky130_fd_sc_hd__dfrtp_1
*I *678:RESET_B I *D sky130_fd_sc_hd__dfrtp_1
*I *684:RESET_B I *D sky130_fd_sc_hd__dfrtp_1
*I *657:SET_B I *D sky130_fd_sc_hd__dfstp_1
*I *658:RESET_B I *D sky130_fd_sc_hd__dfrtp_1
*I *660:RESET_B I *D sky130_fd_sc_hd__dfrtp_1
*I *659:RESET_B I *D sky130_fd_sc_hd__dfrtp_1
*I *672:RESET_B I *D sky130_fd_sc_hd__dfrtp_1
*I *673:RESET_B I *D sky130_fd_sc_hd__dfrtp_1
*I *662:RESET_B I *D sky130_fd_sc_hd__dfrtp_1
*I *663:RESET_B I *D sky130_fd_sc_hd__dfrtp_1
*I *664:RESET_B I *D sky130_fd_sc_hd__dfrtp_1
*I *665:RESET_B I *D sky130_fd_sc_hd__dfrtp_1
*CAP
1 reset_n 0.000575949
2 *661:RESET_B 0
3 *671:RESET_B 0
4 *670:RESET_B 0
5 *674:RESET_B 0.000526224
6 *669:RESET_B 0.000526224
7 *668:RESET_B 0
8 *666:RESET_B 0
9 *667:RESET_B 0.000133645
10 *680:RESET_B 3.61994e-06
11 *679:RESET_B 1.77828e-05
12 *683:RESET_B 1.17451e-05
13 *682:RESET_B 5.2877e-05
14 *676:RESET_B 0.00015958
15 *675:RESET_B 0
16 *681:RESET_B 0.000131805
17 *677:RESET_B 0.00027602
18 *678:RESET_B 5.27242e-05
19 *684:RESET_B 3.47392e-05
20 *657:SET_B 0.000808444
21 *658:RESET_B 2.48235e-05
22 *660:RESET_B 8.40835e-06
23 *659:RESET_B 8.11436e-05
24 *672:RESET_B 0.000336639
25 *673:RESET_B 0.0002435
26 *662:RESET_B 5.98798e-06
27 *663:RESET_B 0.000580163
28 *664:RESET_B 8.12788e-05
29 *665:RESET_B 0.000190845
30 *17:237 0.000624125
31 *17:227 0.000772211
32 *17:215 0.000451882
33 *17:213 0.000161979
34 *17:200 0.000754255
35 *17:196 0.0013944
36 *17:184 0.0011962
37 *17:170 0.00104637
38 *17:166 0.000833809
39 *17:160 0.000411306
40 *17:158 0.000186134
41 *17:156 0.000355798
42 *17:152 0.000562669
43 *17:150 0.000491207
44 *17:148 0.000626642
45 *17:122 0.000893559
46 *17:108 0.00115485
47 *17:96 0.00108257
48 *17:61 0.000806482
49 *17:59 0.000755076
50 *17:49 0.000975302
51 *17:37 0.000926561
52 *17:11 0.000363651
53 *17:9 0.00108165
54 *657:SET_B *613:A 0
55 *657:SET_B *621:A 9.37731e-05
56 *657:SET_B *657:D 7.31567e-05
57 *657:SET_B *671:CLK 2.75229e-05
58 *657:SET_B *143:33 5.30673e-05
59 *658:RESET_B *658:CLK 2.40101e-05
60 *659:RESET_B *645:A 2.46089e-05
61 *659:RESET_B *699:A 0
62 *660:RESET_B *143:25 2.34984e-05
63 *662:RESET_B *143:116 2.53494e-05
64 *663:RESET_B *143:114 0.000195674
65 *663:RESET_B *181:12 5.05521e-05
66 *664:RESET_B *182:6 0.000118246
67 *665:RESET_B *183:6 4.32278e-05
68 *667:RESET_B *700:A 8.8266e-05
69 *672:RESET_B *613:A 7.91192e-05
70 *672:RESET_B *632:A 0.000162426
71 *672:RESET_B *659:CLK 0
72 *672:RESET_B *672:CLK 6.72833e-06
73 *672:RESET_B *672:D 5.43616e-05
74 *672:RESET_B *673:D 2.46089e-05
75 *672:RESET_B *707:A 0.000236803
76 *672:RESET_B *159:44 0.000199308
77 *673:RESET_B *659:CLK 6.21922e-05
78 *674:RESET_B *669:D 0.000158552
79 *674:RESET_B *674:D 8.41639e-05
80 *674:RESET_B *142:97 1.32026e-05
81 *676:RESET_B *676:CLK 8.98797e-05
82 *676:RESET_B *676:D 9.05592e-05
83 *676:RESET_B *146:8 0.000154632
84 *677:RESET_B *678:D 0
85 *677:RESET_B *681:D 1.23706e-05
86 *679:RESET_B *679:D 4.5506e-05
87 *679:RESET_B *142:33 7.95799e-05
88 *680:RESET_B *680:CLK 2.65337e-05
89 *17:37 *651:B 0.0004262
90 *17:37 *653:A 4.99619e-05
91 *17:37 *653:B 0.000301891
92 *17:37 *654:A 0.000146484
93 *17:37 *143:114 0.000353049
94 *17:49 *143:114 0.000238768
95 *17:49 *143:116 0.00021052
96 *17:49 *180:12 0.000276548
97 *17:59 *662:D 8.60799e-05
98 *17:59 *143:116 0.00019044
99 *17:61 *659:CLK 3.64998e-06
100 *17:61 *662:D 0.00015896
101 *17:61 *143:118 4.85206e-05
102 *17:96 *651:B 7.99303e-05
103 *17:96 *654:B 2.87282e-05
104 *17:96 *711:A 0.000151929
105 *17:96 *59:102 4.88854e-05
106 *17:96 *86:10 9.46094e-05
107 *17:96 *143:114 0
108 *17:96 *181:12 4.34149e-05
109 *17:108 *537:A 0.000497681
110 *17:108 *672:D 0
111 *17:108 *711:A 0.000105849
112 *17:108 *86:10 0.000187766
113 *17:108 *143:16 0.000219422
114 *17:108 *143:25 0.000196574
115 *17:108 *178:34 3.69171e-05
116 *17:122 *658:CLK 0.000105508
117 *17:122 *143:25 0.000274602
118 *17:122 *159:31 0.000191335
119 *17:148 *613:A 0
120 *17:148 *657:D 0.000300109
121 *17:148 *670:D 0
122 *17:150 *669:D 0
123 *17:150 *670:D 0
124 *17:156 retention_save 0
125 *17:156 *700:A 0.000140912
126 *17:156 *708:A 0
127 *17:158 *700:A 0.000253949
128 *17:158 *708:A 0
129 *17:160 *700:A 9.37644e-05
130 *17:166 *680:CLK 2.75229e-05
131 *17:170 *680:CLK 0.000107373
132 *17:170 *680:D 0
133 *17:170 *684:CLK 9.3305e-05
134 *17:170 *684:D 4.01948e-05
135 *17:184 *679:D 0
136 *17:196 *562:A 2.64559e-05
137 *17:196 *683:D 0.000158066
138 *17:200 *565:A 3.00381e-05
139 *17:200 *109:12 3.5434e-05
140 *17:200 *174:12 0.000130296
141 *17:213 *174:12 2.77283e-05
142 *17:227 *681:D 0
143 *17:237 *591:A2 0
144 *17:237 *188:12 6.55328e-05
145 clk_gate_en *17:156 0
146 pwr_gate_en *17:160 0
147 pwr_gate_en *17:166 0
148 *685:A *659:RESET_B 0
149 *689:A *667:RESET_B 5.83121e-06
150 *689:A *17:166 0
151 *690:A *677:RESET_B 1.22676e-05
*RES
1 reset_n *17:9 9.915 
2 *17:9 *17:11 1.38 
3 *17:11 *665:RESET_B 5.3075 
4 *17:11 *664:RESET_B 3.4325 
5 *17:9 *17:37 12.575 
6 *17:37 *663:RESET_B 1.7775 
7 *663:RESET_B *17:49 9.4125 
8 *17:49 *662:RESET_B 0.3975 
9 *17:49 *17:59 5.985 
10 *17:59 *17:61 2.865 
11 *17:61 *673:RESET_B 3.2775 
12 *17:61 *672:RESET_B 12.0175 
13 *17:59 *659:RESET_B 5.38 
14 *17:37 *17:96 11.795 
15 *17:96 *17:108 18.78 
16 *17:108 *660:RESET_B 0.3975 
17 *17:108 *17:122 8.52 
18 *17:122 *658:RESET_B 0.3975 
19 *17:122 *657:SET_B 9.0925 
20 *657:SET_B *17:148 10.715 
21 *17:148 *17:150 2.91 
22 *17:150 *17:152 5.46 
23 *17:152 *17:156 4.635 
24 *17:156 *17:158 2.91 
25 *17:158 *17:160 1.38 
26 *17:160 *17:166 5.36 
27 *17:166 *17:170 8.055 
28 *17:170 *684:RESET_B 0.7575 
29 *17:170 *17:184 7.34 
30 *17:184 *17:196 11.735 
31 *17:196 *17:200 7.71 
32 *17:200 *678:RESET_B 5.125 
33 *17:200 *17:213 1.5 
34 *17:213 *17:215 2 
35 *17:215 *677:RESET_B 6.5825 
36 *17:215 *17:227 2.91 
37 *17:227 *681:RESET_B 3.7775 
38 *17:227 *17:237 8.01 
39 *17:237 *675:RESET_B 2 
40 *17:237 *676:RESET_B 5.8625 
41 *17:213 *682:RESET_B 0.7425 
42 *17:196 *683:RESET_B 0.3975 
43 *17:184 *679:RESET_B 2.7425 
44 *17:166 *680:RESET_B 0.3975 
45 *17:160 *667:RESET_B 4.1225 
46 *17:158 *666:RESET_B 2 
47 *17:156 *668:RESET_B 2 
48 *17:152 *669:RESET_B 2 
49 *669:RESET_B *674:RESET_B 7.14 
50 *17:150 *670:RESET_B 2 
51 *17:148 *671:RESET_B 2 
52 *17:96 *661:RESET_B 2 
*END

*D_NET *18 0.00207805
*CONN
*P retention_en O
*I *704:X O *D sky130_fd_sc_hd__buf_4
*CAP
1 retention_en 0.00103903
2 *704:X 0.00103903
3 retention_en retention_save 0
4 retention_en *142:65 0
5 pwr_gate_en retention_en 0
*RES
1 *704:X retention_en 6.7915 
*END

*D_NET *19 0.000472402
*CONN
*P retention_ready I
*I *697:A I *D sky130_fd_sc_hd__buf_1
*CAP
1 retention_ready 0.000230345
2 *697:A 0.000230345
3 *697:A *582:A 1.17114e-05
*RES
1 retention_ready *697:A 5.5535 
*END

*D_NET *20 0.000748647
*CONN
*P retention_restore O
*I *705:X O *D sky130_fd_sc_hd__buf_2
*CAP
1 retention_restore 0.000374324
2 *705:X 0.000374324
3 retention_restore retention_save 0
4 reset_ctrl retention_restore 0
*RES
1 *705:X retention_restore 7.7793 
*END

*D_NET *21 0.000873722
*CONN
*P retention_save O
*I *706:X O *D sky130_fd_sc_hd__buf_2
*CAP
1 retention_save 0.000417393
2 *706:X 0.000417393
3 retention_save *706:A 3.89366e-05
4 retention_en retention_save 0
5 retention_restore retention_save 0
6 *17:156 retention_save 0
*RES
1 *706:X retention_save 8.0233 
*END

*D_NET *22 0.00101168
*CONN
*P seq_busy O
*I *707:X O *D sky130_fd_sc_hd__clkbuf_2
*CAP
1 seq_busy 0.000388914
2 *707:X 0.000388914
3 seq_busy *699:A 0.00012657
4 error seq_busy 0.000107284
5 pwr_state[1] seq_busy 0
*RES
1 *707:X seq_busy 7.76023 
*END

*D_NET *23 0.000893397
*CONN
*P wake_up I
*I *698:A I *D sky130_fd_sc_hd__clkbuf_1
*CAP
1 wake_up 0.000432937
2 *698:A 0.000432937
3 *698:A *677:D 2.75229e-05
*RES
1 wake_up *698:A 11.04 
*END

*D_NET *24 0.00152283
*CONN
*I *666:D I *D sky130_fd_sc_hd__dfrtp_1
*I *606:X O *D sky130_fd_sc_hd__o21a_1
*CAP
1 *666:D 0.000476868
2 *606:X 0.000476868
3 *666:D *88:16 1.54061e-06
4 clk_gate_en *666:D 0.000309362
5 pwr_gate_en *666:D 0.000258188
*RES
1 *606:X *666:D 14.865 
*END

*D_NET *25 0.000791287
*CONN
*I *657:D I *D sky130_fd_sc_hd__dfstp_1
*I *608:Y O *D sky130_fd_sc_hd__inv_2
*CAP
1 *657:D 0.000209011
2 *608:Y 0.000209011
3 *657:D *613:A 0
4 *657:SET_B *657:D 7.31567e-05
5 *17:148 *657:D 0.000300109
*RES
1 *608:Y *657:D 12.105 
*END

*D_NET *26 0.00405088
*CONN
*I *602:A I *D sky130_fd_sc_hd__nand3_1
*I *667:D I *D sky130_fd_sc_hd__dfrtp_1
*I *601:Y O *D sky130_fd_sc_hd__nor2_1
*CAP
1 *602:A 0
2 *667:D 0.0009697
3 *601:Y 0.000527191
4 *26:10 0.00149689
5 *667:D *567:B 5.16418e-05
6 *667:D *667:CLK 4.89295e-05
7 *667:D *679:D 0.000243243
8 *667:D *683:CLK 0.000113797
9 *667:D *683:D 3.95269e-05
10 *667:D *109:12 0
11 *667:D *142:31 3.81908e-06
12 *667:D *142:33 5.17718e-05
13 *667:D *142:37 4.57056e-05
14 *26:10 *566:B 0
15 *26:10 *567:B 0.000154488
16 *26:10 *572:A 0.000110483
17 *26:10 *603:C1 0.000146092
18 *26:10 *88:68 4.76051e-05
19 *26:10 *90:16 0
20 *26:10 *105:14 0
21 *26:10 *109:12 0
*RES
1 *601:Y *26:10 12.93 
2 *26:10 *667:D 18 
3 *26:10 *602:A 3.6 
*END

*D_NET *27 0.00306184
*CONN
*I *669:D I *D sky130_fd_sc_hd__dfrtp_1
*I *616:X O *D sky130_fd_sc_hd__o211a_1
*CAP
1 *669:D 0.000682222
2 *616:X 0.000682222
3 *669:D *547:B 4.38051e-05
4 *669:D *614:A2 0.000163992
5 *669:D *615:A1 0.000181095
6 *669:D *616:A1 7.00889e-06
7 *669:D *668:D 0.000166299
8 *669:D *670:CLK 0.000481484
9 *669:D *670:D 0
10 *669:D *671:CLK 0.000468238
11 *669:D *46:10 0
12 *669:D *142:97 2.69217e-05
13 *674:RESET_B *669:D 0.000158552
14 *17:150 *669:D 0
*RES
1 *616:X *669:D 24.225 
*END

*D_NET *28 0.00051167
*CONN
*I *658:D I *D sky130_fd_sc_hd__dfrtp_1
*I *628:Y O *D sky130_fd_sc_hd__nor2_1
*CAP
1 *658:D 0.000253807
2 *628:Y 0.000253807
3 *658:D *613:A 0
4 *658:D *628:B 4.05674e-06
5 *658:D *709:A 0
*RES
1 *628:Y *658:D 10.575 
*END

*D_NET *29 0.000282697
*CONN
*I *659:D I *D sky130_fd_sc_hd__dfrtp_1
*I *632:Y O *D sky130_fd_sc_hd__nor2_1
*CAP
1 *659:D 0.000120248
2 *632:Y 0.000120248
3 *659:D *613:A 3.54721e-05
4 *659:D *59:55 6.72833e-06
*RES
1 *632:Y *659:D 9.03 
*END

*D_NET *30 0.000778599
*CONN
*I *660:D I *D sky130_fd_sc_hd__dfrtp_1
*I *637:Y O *D sky130_fd_sc_hd__nor2_1
*CAP
1 *660:D 0.000261292
2 *637:Y 0.000261292
3 *660:D *672:D 7.23602e-05
4 *660:D *143:25 0.000183656
5 *660:D *178:34 0
*RES
1 *637:Y *660:D 10.9838 
*END

*D_NET *31 0.0018873
*CONN
*I *661:D I *D sky130_fd_sc_hd__dfrtp_1
*I *641:Y O *D sky130_fd_sc_hd__nor2_1
*CAP
1 *661:D 0.000585673
2 *641:Y 0.000585673
3 *661:D *656:A 0.000235378
4 *661:D *711:A 0.000157401
5 *661:D *59:102 5.52658e-05
6 *661:D *86:10 0
7 *661:D *143:80 9.50342e-06
8 *661:D *143:95 0.000258408
*RES
1 *641:Y *661:D 16.335 
*END

*D_NET *32 0.000485386
*CONN
*I *662:D I *D sky130_fd_sc_hd__dfrtp_1
*I *645:Y O *D sky130_fd_sc_hd__nor2_1
*CAP
1 *662:D 5.11087e-05
2 *645:Y 5.11087e-05
3 *662:D *143:116 6.84173e-05
4 *662:D *143:118 6.97118e-05
5 *17:59 *662:D 8.60799e-05
6 *17:61 *662:D 0.00015896
*RES
1 *645:Y *662:D 5.375 
*END

*D_NET *33 0.000429575
*CONN
*I *663:D I *D sky130_fd_sc_hd__dfrtp_1
*I *650:Y O *D sky130_fd_sc_hd__nor2_1
*CAP
1 *663:D 0.000121133
2 *650:Y 0.000121133
3 *663:D *59:35 0.000162318
4 *663:D *59:47 2.49909e-05
*RES
1 *650:Y *663:D 9.54 
*END

*D_NET *34 0.000307486
*CONN
*I *664:D I *D sky130_fd_sc_hd__dfrtp_1
*I *654:Y O *D sky130_fd_sc_hd__nor2_1
*CAP
1 *664:D 9.90096e-05
2 *654:Y 9.90096e-05
3 *664:D *652:B 5.83121e-06
4 *664:D *182:10 0.000103635
*RES
1 *654:Y *664:D 5.03 
*END

*D_NET *35 0.000775767
*CONN
*I *665:D I *D sky130_fd_sc_hd__dfrtp_1
*I *656:Y O *D sky130_fd_sc_hd__nor2_1
*CAP
1 *665:D 0.000271876
2 *656:Y 0.000271876
3 *665:D *539:A 2.69153e-05
4 *665:D *539:B 5.47309e-05
5 *665:D *85:12 3.04958e-05
6 *665:D *143:101 0.000119873
*RES
1 *656:Y *665:D 7.91 
*END

*D_NET *36 0.00132517
*CONN
*I *595:A I *D sky130_fd_sc_hd__nor2_1
*I *594:Y O *D sky130_fd_sc_hd__nand2_1
*CAP
1 *595:A 0.000402063
2 *594:Y 0.000402063
3 *595:A *545:B 4.82863e-05
4 *595:A *583:A 4.43682e-05
5 *595:A *583:B 4.82863e-05
6 *595:A *584:A 2.03861e-05
7 *595:A *584:B 1.35054e-05
8 *595:A *589:B 8.65961e-05
9 *595:A *596:A 3.95724e-05
10 *595:A *38:10 1.61831e-05
11 *595:A *89:16 0
12 *595:A *92:16 5.79231e-05
13 *595:A *92:24 2.97782e-05
14 *595:A *127:10 0.000116158
15 *595:A *129:12 0
*RES
1 *594:Y *595:A 13.875 
*END

*D_NET *37 0.000197667
*CONN
*I *596:A I *D sky130_fd_sc_hd__nor2_1
*I *595:Y O *D sky130_fd_sc_hd__nor2_1
*CAP
1 *596:A 4.68128e-05
2 *595:Y 4.68128e-05
3 *596:A *589:B 1.61831e-05
4 *596:A *38:10 4.82863e-05
5 *595:A *596:A 3.95724e-05
*RES
1 *595:Y *596:A 4.355 
*END

*D_NET *38 0.00113793
*CONN
*I *622:A I *D sky130_fd_sc_hd__nand3_1
*I *605:A I *D sky130_fd_sc_hd__nand2_1
*I *596:Y O *D sky130_fd_sc_hd__nor2_1
*CAP
1 *622:A 0
2 *605:A 0.000153508
3 *596:Y 0.000170696
4 *38:10 0.000324204
5 *605:A *592:A 4.28112e-06
6 *605:A *676:D 2.69153e-05
7 *605:A *145:6 2.01737e-05
8 *38:10 *590:B1 0.000163193
9 *38:10 *592:A 9.36361e-05
10 *38:10 *627:A 0.000116853
11 *595:A *38:10 1.61831e-05
12 *596:A *38:10 4.82863e-05
*RES
1 *596:Y *38:10 8.07 
2 *38:10 *605:A 5.94 
3 *38:10 *622:A 3.6 
*END

*D_NET *39 0.00172937
*CONN
*I *604:A2 I *D sky130_fd_sc_hd__a21oi_1
*I *612:A I *D sky130_fd_sc_hd__or3b_1
*I *597:Y O *D sky130_fd_sc_hd__inv_2
*CAP
1 *604:A2 5.13175e-05
2 *612:A 0.000477439
3 *597:Y 0
4 *39:4 0.000528756
5 *604:A2 *571:B 4.21973e-05
6 *604:A2 *604:B1 1.37328e-05
7 *604:A2 *611:B 1.68183e-05
8 *604:A2 *115:8 3.70488e-05
9 *612:A *571:A 2.86975e-05
10 *612:A *571:B 0.000235857
11 *612:A *611:B 0.000107408
12 *612:A *48:8 8.63511e-05
13 *612:A *115:8 0.000103747
*RES
1 *597:Y *39:4 1.6 
2 *39:4 *612:A 10.345 
3 *39:4 *604:A2 3.115 
*END

*D_NET *40 0.0032202
*CONN
*I *603:A2 I *D sky130_fd_sc_hd__o211ai_2
*I *607:B I *D sky130_fd_sc_hd__nor2_1
*I *598:Y O *D sky130_fd_sc_hd__nand2_1
*CAP
1 *603:A2 0.00037511
2 *607:B 0.00064486
3 *598:Y 0
4 *40:4 0.00101997
5 *603:A2 *591:B1 1.77945e-05
6 *603:A2 *44:10 4.77769e-05
7 *603:A2 *88:68 0.000306863
8 *603:A2 *144:69 5.84096e-05
9 *607:B *575:A 4.5149e-05
10 *607:B *607:A 0.00013455
11 *607:B *609:B1 4.66108e-05
12 *607:B *672:D 2.8531e-05
13 *607:B *46:10 1.52352e-05
14 *607:B *90:12 0.00015897
15 *607:B *90:49 2.07338e-05
16 *607:B *105:14 8.33066e-06
17 *607:B *105:36 0.000179704
18 *607:B *146:59 0.000111604
*RES
1 *598:Y *40:4 1.6 
2 *40:4 *607:B 19.905 
3 *40:4 *603:A2 6.805 
*END

*D_NET *41 0.000487356
*CONN
*I *600:A I *D sky130_fd_sc_hd__nand3_1
*I *599:Y O *D sky130_fd_sc_hd__nand2_1
*CAP
1 *600:A 0.000145331
2 *599:Y 0.000145331
3 *600:A *560:A1 4.43871e-06
4 *600:A *599:A 7.60965e-05
5 *600:A *103:17 0.000116158
*RES
1 *599:Y *600:A 9.72 
*END

*D_NET *42 0.00137407
*CONN
*I *603:B1 I *D sky130_fd_sc_hd__o211ai_2
*I *600:Y O *D sky130_fd_sc_hd__nand3_1
*CAP
1 *603:B1 0.000462502
2 *600:Y 0.000462502
3 *603:B1 *572:A 7.21318e-05
4 *603:B1 *591:A2 4.77769e-05
5 *603:B1 *591:A3 3.54721e-05
6 *603:B1 *603:C1 1.28874e-05
7 *603:B1 *103:17 4.28112e-06
8 *603:B1 *112:19 4.99619e-05
9 *603:B1 *144:69 0.00022656
*RES
1 *600:Y *603:B1 17.635 
*END

*D_NET *43 0.00051754
*CONN
*I *603:C1 I *D sky130_fd_sc_hd__o211ai_2
*I *602:Y O *D sky130_fd_sc_hd__nand3_1
*CAP
1 *603:C1 0.000151772
2 *602:Y 0.000151772
3 *603:C1 *566:B 2.87867e-05
4 *603:C1 *569:A 2.62297e-05
5 *603:B1 *603:C1 1.28874e-05
6 *26:10 *603:C1 0.000146092
*RES
1 *602:Y *603:C1 10.365 
*END

*D_NET *44 0.00267735
*CONN
*I *604:B1 I *D sky130_fd_sc_hd__a21oi_1
*I *623:A I *D sky130_fd_sc_hd__inv_2
*I *603:Y O *D sky130_fd_sc_hd__o211ai_2
*CAP
1 *604:B1 0.000146067
2 *623:A 9.60944e-05
3 *603:Y 0.000227824
4 *44:10 0.000469985
5 *604:B1 *573:B 2.15337e-05
6 *604:B1 *611:B 0.000136276
7 *604:B1 *627:C 0.000132842
8 *604:B1 *686:A 0.000136394
9 *604:B1 *45:10 0.000235568
10 *604:B1 *115:16 0
11 *623:A *590:A2 2.65814e-06
12 *623:A *590:B1 0.000111391
13 *623:A *592:B 1.32102e-05
14 *623:A *146:14 0.000265768
15 *44:10 *572:A 6.4816e-05
16 *44:10 *573:B 2.85623e-05
17 *44:10 *686:A 0.000320951
18 *44:10 *88:68 4.58691e-05
19 *44:10 *90:49 0
20 *44:10 *144:69 4.89395e-05
21 *44:10 *146:16 0.000111087
22 *603:A2 *44:10 4.77769e-05
23 *604:A2 *604:B1 1.37328e-05
*RES
1 *603:Y *44:10 9.51 
2 *44:10 *623:A 6.48 
3 *44:10 *604:B1 8.535 
*END

*D_NET *45 0.002609
*CONN
*I *622:C I *D sky130_fd_sc_hd__nand3_1
*I *605:B I *D sky130_fd_sc_hd__nand2_1
*I *604:Y O *D sky130_fd_sc_hd__a21oi_1
*CAP
1 *622:C 9.88613e-06
2 *605:B 0.000105763
3 *604:Y 0.00037097
4 *45:10 0.00048662
5 *605:B *588:B 9.05592e-05
6 *605:B *145:23 4.89395e-05
7 *622:C *592:A 4.77807e-05
8 *622:C *146:10 4.77807e-05
9 *45:10 *571:B 0.000383657
10 *45:10 *588:B 0.000172726
11 *45:10 *592:A 3.47421e-05
12 *45:10 *593:A 9.37731e-05
13 *45:10 *611:B 6.89033e-05
14 *45:10 *627:A 0.000100042
15 *45:10 *89:12 0.000311288
16 *604:B1 *45:10 0.000235568
*RES
1 *604:Y *45:10 13.44 
2 *45:10 *605:B 5.685 
3 *45:10 *622:C 4.05 
*END

*D_NET *46 0.00259182
*CONN
*I *608:A I *D sky130_fd_sc_hd__inv_2
*I *611:A I *D sky130_fd_sc_hd__nor2_1
*I *607:Y O *D sky130_fd_sc_hd__nor2_1
*CAP
1 *608:A 0.000461992
2 *611:A 0
3 *607:Y 0.000254533
4 *46:10 0.000716525
5 *608:A *547:A 0.000163199
6 *608:A *570:A 0
7 *608:A *614:A2 0
8 *608:A *614:B1 7.34364e-05
9 *608:A *712:A 0
10 *608:A *88:16 0.000166346
11 *608:A *92:24 0.000238137
12 *608:A *100:10 0
13 *46:10 *607:A 1.14169e-05
14 *46:10 *615:B1 0.000180689
15 *46:10 *88:16 0.000310313
16 *607:B *46:10 1.52352e-05
17 *669:D *46:10 0
*RES
1 *607:Y *46:10 8.76 
2 *46:10 *611:A 3.6 
3 *46:10 *608:A 12.93 
*END

*D_NET *47 0.00179606
*CONN
*I *614:B1 I *D sky130_fd_sc_hd__a21o_1
*I *612:B I *D sky130_fd_sc_hd__or3b_1
*I *610:Y O *D sky130_fd_sc_hd__nor2_1
*CAP
1 *614:B1 0.000198315
2 *612:B 0
3 *610:Y 0.000293558
4 *47:10 0.000491873
5 *614:B1 *555:A 8.88715e-05
6 *614:B1 *555:B 0.00011671
7 *614:B1 *615:A2 9.76522e-05
8 *614:B1 *615:B1 7.63883e-05
9 *614:B1 *100:10 1.52184e-05
10 *614:B1 *100:25 0.000120655
11 *47:10 *610:A 2.49909e-05
12 *47:10 *610:B 6.69608e-06
13 *47:10 *615:A1 9.29751e-06
14 *47:10 *615:A2 3.86607e-05
15 *47:10 *615:B1 0.000143733
16 *608:A *614:B1 7.34364e-05
*RES
1 *610:Y *47:10 8.28 
2 *47:10 *612:B 3.6 
3 *47:10 *614:B1 8.88 
*END

*D_NET *48 0.000888721
*CONN
*I *612:C_N I *D sky130_fd_sc_hd__or3b_1
*I *615:B1 I *D sky130_fd_sc_hd__o21ai_1
*I *611:Y O *D sky130_fd_sc_hd__nor2_1
*CAP
1 *612:C_N 0
2 *615:B1 0.000133378
3 *611:Y 6.18945e-05
4 *48:8 0.000195273
5 *615:B1 *615:A1 0
6 *615:B1 *615:A2 7.00889e-06
7 *48:8 *611:B 4.00541e-06
8 *612:A *48:8 8.63511e-05
9 *614:B1 *615:B1 7.63883e-05
10 *46:10 *615:B1 0.000180689
11 *47:10 *615:B1 0.000143733
*RES
1 *611:Y *48:8 2.755 
2 *48:8 *615:B1 8.885 
3 *48:8 *612:C_N 1.6 
*END

*D_NET *49 0.00397624
*CONN
*I *613:A I *D sky130_fd_sc_hd__clkbuf_1
*I *612:X O *D sky130_fd_sc_hd__or3b_1
*CAP
1 *613:A 0.00128155
2 *612:X 0.00128155
3 *613:A *616:A1 0
4 *613:A *620:B 1.73877e-05
5 *613:A *621:A 0
6 *613:A *628:B 0.000481069
7 *613:A *630:A 0
8 *613:A *632:A 0.000115945
9 *613:A *659:CLK 3.72673e-05
10 *613:A *671:CLK 0.00037491
11 *613:A *671:D 7.4027e-05
12 *613:A *673:D 3.44698e-05
13 *613:A *94:12 0
14 *613:A *159:31 0
15 *613:A *159:44 0.000124516
16 *613:A *176:10 3.89528e-05
17 *657:D *613:A 0
18 *657:SET_B *613:A 0
19 *658:D *613:A 0
20 *659:D *613:A 3.54721e-05
21 *672:RESET_B *613:A 7.91192e-05
22 *17:148 *613:A 0
*RES
1 *612:X *613:A 32.205 
*END

*D_NET *50 0.000381208
*CONN
*I *618:B1 I *D sky130_fd_sc_hd__a211oi_1
*I *617:Y O *D sky130_fd_sc_hd__nand2_1
*CAP
1 *618:B1 0.000153281
2 *617:Y 0.000153281
3 *618:B1 *617:A 1.72517e-05
4 *618:B1 *617:B 9.53428e-06
5 *618:B1 *618:A1 1.17309e-05
6 *618:B1 *711:A 3.61284e-05
*RES
1 *617:Y *618:B1 5.51 
*END

*D_NET *51 0.000854173
*CONN
*I *621:A I *D sky130_fd_sc_hd__nand2_1
*I *619:X O *D sky130_fd_sc_hd__or2_1
*CAP
1 *621:A 0.000225922
2 *619:X 0.000225922
3 *621:A *550:A 4.82863e-05
4 *621:A *620:B 1.94892e-05
5 *621:A *94:12 2.25161e-05
6 *621:A *143:33 4.60584e-05
7 *621:A *159:31 0.000137422
8 *621:A *176:10 3.47837e-05
9 *613:A *621:A 0
10 *657:SET_B *621:A 9.37731e-05
*RES
1 *619:X *621:A 12.015 
*END

*D_NET *52 0.000775285
*CONN
*I *629:B I *D sky130_fd_sc_hd__or2_1
*I *630:A I *D sky130_fd_sc_hd__nand2_1
*I *621:B I *D sky130_fd_sc_hd__nand2_1
*I *620:Y O *D sky130_fd_sc_hd__nand2_1
*CAP
1 *629:B 1.96877e-05
2 *630:A 0.000109814
3 *621:B 2.633e-05
4 *620:Y 2.00768e-05
5 *52:6 0.000175909
6 *621:B *620:A 0
7 *621:B *628:A 4.74638e-05
8 *621:B *94:8 0
9 *629:B *536:B 2.8185e-05
10 *629:B *159:31 8.65961e-05
11 *630:A *630:B 0
12 *630:A *159:31 1.0183e-05
13 *630:A *159:44 6.36679e-05
14 *52:6 *620:A 4.99619e-05
15 *52:6 *628:A 4.36992e-05
16 *52:6 *159:31 7.49327e-05
17 *613:A *630:A 0
18 *685:A *630:A 1.87784e-05
*RES
1 *620:Y *52:6 2.74 
2 *52:6 *621:B 2.3875 
3 *52:6 *630:A 7.685 
4 *52:6 *629:B 2.395 
*END

*D_NET *53 0.000547564
*CONN
*I *628:A I *D sky130_fd_sc_hd__nor2_1
*I *621:Y O *D sky130_fd_sc_hd__nand2_1
*CAP
1 *628:A 0.000147569
2 *621:Y 0.000147569
3 *628:A *536:B 8.65961e-05
4 *628:A *620:A 1.61831e-05
5 *628:A *628:B 5.84828e-05
6 *621:B *628:A 4.74638e-05
7 *52:6 *628:A 4.36992e-05
*RES
1 *621:Y *628:A 6.425 
*END

*D_NET *54 0.00118146
*CONN
*I *627:A I *D sky130_fd_sc_hd__nand3_4
*I *622:Y O *D sky130_fd_sc_hd__nand3_1
*CAP
1 *627:A 0.000196884
2 *622:Y 0.000196884
3 *627:A *590:B1 2.75229e-05
4 *627:A *592:A 0.000116853
5 *627:A *593:A 8.23457e-05
6 *627:A *89:12 0.000124895
7 *627:A *131:8 0.000219182
8 *38:10 *627:A 0.000116853
9 *45:10 *627:A 0.000100042
*RES
1 *622:Y *627:A 12.705 
*END

*D_NET *55 0.000486482
*CONN
*I *627:B I *D sky130_fd_sc_hd__nand3_4
*I *623:Y O *D sky130_fd_sc_hd__inv_2
*CAP
1 *627:B 0.000108659
2 *623:Y 0.000108659
3 *627:B *592:B 8.8266e-05
4 *627:B *59:10 1.34361e-05
5 *627:B *89:12 0.000116158
6 *627:B *90:92 5.13029e-05
*RES
1 *623:Y *627:B 9.63 
*END

*D_NET *56 0.00109928
*CONN
*I *626:A I *D sky130_fd_sc_hd__nand2_1
*I *624:Y O *D sky130_fd_sc_hd__nand2_1
*CAP
1 *626:A 0.0003244
2 *624:Y 0.0003244
3 *626:A *573:A 6.95273e-05
4 *626:A *607:A 4.77757e-05
5 *626:A *610:B 0.000235339
6 *626:A *626:B 0
7 *626:A *672:D 4.94546e-05
8 *626:A *101:33 3.75126e-05
9 *626:A *117:14 1.08758e-05
*RES
1 *624:Y *626:A 12.69 
*END

*D_NET *57 0.00045506
*CONN
*I *626:B I *D sky130_fd_sc_hd__nand2_1
*I *625:Y O *D sky130_fd_sc_hd__nand3_1
*CAP
1 *626:B 0.00012297
2 *625:Y 0.00012297
3 *626:B *607:A 2.0851e-06
4 *626:B *625:C 8.64421e-05
5 *626:B *101:33 0.000120593
6 *626:A *626:B 0
*RES
1 *625:Y *626:B 9.375 
*END

*D_NET *58 0.00103647
*CONN
*I *627:C I *D sky130_fd_sc_hd__nand3_4
*I *626:Y O *D sky130_fd_sc_hd__nand2_1
*CAP
1 *627:C 0.000230982
2 *626:Y 0.000230982
3 *627:C *573:A 8.49205e-05
4 *627:C *573:B 0.000117265
5 *627:C *590:A1 2.86691e-05
6 *627:C *590:A2 0.000201503
7 *627:C *686:A 9.3062e-06
8 *627:C *115:16 0
9 *604:B1 *627:C 0.000132842
*RES
1 *626:Y *627:C 12.645 
*END

*D_NET *59 0.0125801
*CONN
*I *654:B I *D sky130_fd_sc_hd__nor2_1
*I *656:B I *D sky130_fd_sc_hd__nor2_1
*I *641:B I *D sky130_fd_sc_hd__nor2_1
*I *650:B I *D sky130_fd_sc_hd__nor2_1
*I *645:B I *D sky130_fd_sc_hd__nor2_1
*I *632:B I *D sky130_fd_sc_hd__nor2_1
*I *628:B I *D sky130_fd_sc_hd__nor2_1
*I *637:B I *D sky130_fd_sc_hd__nor2_1
*I *627:Y O *D sky130_fd_sc_hd__nand3_4
*CAP
1 *654:B 0.000177749
2 *656:B 0
3 *641:B 1.8374e-05
4 *650:B 0
5 *645:B 0
6 *632:B 0
7 *628:B 0.000349377
8 *637:B 0.000562936
9 *627:Y 0.000787394
10 *59:102 0.000435521
11 *59:89 0.000360712
12 *59:55 0.000619687
13 *59:47 0.00113152
14 *59:35 0.00118712
15 *59:14 0.00103296
16 *59:10 0.00101608
17 *628:B *620:A 0
18 *637:B *635:B 0
19 *637:B *637:A 4.89295e-05
20 *637:B *639:A 6.06947e-05
21 *637:B *643:C 0.000188098
22 *637:B *63:8 0
23 *637:B *82:12 0.000146998
24 *637:B *122:8 2.06083e-05
25 *637:B *178:34 4.77757e-05
26 *637:B *178:45 0.000303692
27 *641:B *641:A 5.19006e-06
28 *654:B *539:A 0.000134847
29 *654:B *656:A 5.31158e-06
30 *59:10 *537:B 0.000114406
31 *59:10 *551:A 3.53984e-05
32 *59:10 *580:B 1.79536e-05
33 *59:10 *581:B 9.07817e-05
34 *59:10 *594:B 0
35 *59:10 *617:B 0
36 *59:10 *618:A1 0
37 *59:10 *640:A 7.08331e-05
38 *59:10 *643:C 9.09765e-05
39 *59:10 *686:A 7.63125e-05
40 *59:10 *687:A 0.000277601
41 *59:10 *711:A 0
42 *59:10 *87:16 7.89767e-05
43 *59:10 *89:12 9.50342e-06
44 *59:10 *90:92 0
45 *59:10 *98:14 0
46 *59:10 *124:10 0
47 *59:10 *124:16 0
48 *59:10 *131:25 0
49 *59:10 *143:16 5.92191e-05
50 *59:10 *179:14 1.08764e-05
51 *59:14 *640:B 0.000121036
52 *59:14 *641:A 6.81928e-05
53 *59:14 *711:A 1.07593e-05
54 *59:35 *643:A 0.000136809
55 *59:35 *643:C 0.000332147
56 *59:35 *650:A 0.000165789
57 *59:35 *71:21 2.17712e-05
58 *59:35 *180:12 1.79103e-05
59 *59:47 *699:A 0.000230444
60 *59:47 *707:A 8.6099e-05
61 *59:55 *643:A 4.71087e-05
62 *59:55 *707:A 0.000161305
63 *59:55 *159:44 2.75092e-05
64 *59:89 *641:A 4.31979e-05
65 *59:89 *711:A 2.86691e-05
66 *59:102 *656:A 7.33357e-05
67 *59:102 *711:A 5.49399e-05
68 *613:A *628:B 0.000481069
69 *627:B *59:10 1.34361e-05
70 *628:A *628:B 5.84828e-05
71 *658:D *628:B 4.05674e-06
72 *659:D *59:55 6.72833e-06
73 *661:D *59:102 5.52658e-05
74 *663:D *59:35 0.000162318
75 *663:D *59:47 2.49909e-05
76 *685:A *59:47 0.000162325
77 *685:A *59:55 0.000332371
78 *17:96 *654:B 2.87282e-05
79 *17:96 *59:102 4.88854e-05
*RES
1 *627:Y *59:10 22.535 
2 *59:10 *59:14 4.52 
3 *59:14 *637:B 14.625 
4 *59:14 *59:35 10.565 
5 *59:35 *59:47 16.55 
6 *59:47 *59:55 8.465 
7 *59:55 *628:B 13.16 
8 *59:55 *632:B 1.6 
9 *59:47 *645:B 3.6 
10 *59:35 *650:B 1.6 
11 *59:10 *59:89 1.485 
12 *59:89 *641:B 1.96 
13 *59:89 *59:102 6.845 
14 *59:102 *656:B 3.6 
15 *59:102 *654:B 7.245 
*END

*D_NET *60 0.00255397
*CONN
*I *631:A I *D sky130_fd_sc_hd__nand2_1
*I *635:A I *D sky130_fd_sc_hd__nand2_1
*I *639:B I *D sky130_fd_sc_hd__or2_1
*I *634:B I *D sky130_fd_sc_hd__or2_1
*I *629:X O *D sky130_fd_sc_hd__or2_1
*CAP
1 *631:A 0.000178626
2 *635:A 0
3 *639:B 5.27251e-05
4 *634:B 0
5 *629:X 7.6518e-05
6 *60:18 0.00038394
7 *60:12 0.00055652
8 *60:8 0.000480448
9 *631:A *672:CLK 0.000292477
10 *631:A *672:D 1.19928e-05
11 *631:A *177:14 0
12 *639:B *638:A 0.000123969
13 *60:8 *672:CLK 0.000136177
14 *60:8 *177:14 0
15 *60:18 *634:A 4.75959e-05
16 *60:18 *635:B 1.23379e-05
17 *60:18 *636:A 2.79137e-05
18 *60:18 *636:B 0.00012212
19 *60:18 *638:A 5.06132e-05
*RES
1 *629:X *60:8 5.235 
2 *60:8 *60:12 5.21 
3 *60:12 *60:18 4.53 
4 *60:18 *634:B 1.6 
5 *60:18 *639:B 2.74 
6 *60:12 *635:A 1.6 
7 *60:8 *631:A 7.485 
*END

*D_NET *61 0.000303857
*CONN
*I *631:B I *D sky130_fd_sc_hd__nand2_1
*I *630:Y O *D sky130_fd_sc_hd__nand2_1
*CAP
1 *631:B 4.85863e-05
2 *630:Y 4.85863e-05
3 *631:B *159:44 7.25617e-05
4 *685:A *631:B 0.000134123
*RES
1 *630:Y *631:B 8.835 
*END

*D_NET *62 0.000696148
*CONN
*I *632:A I *D sky130_fd_sc_hd__nor2_1
*I *631:Y O *D sky130_fd_sc_hd__nand2_1
*CAP
1 *632:A 0.000182556
2 *631:Y 0.000182556
3 *632:A *672:CLK 5.26654e-05
4 *613:A *632:A 0.000115945
5 *672:RESET_B *632:A 0.000162426
*RES
1 *631:Y *632:A 10.41 
*END

*D_NET *63 0.000937847
*CONN
*I *635:B I *D sky130_fd_sc_hd__nand2_1
*I *634:A I *D sky130_fd_sc_hd__or2_1
*I *633:Y O *D sky130_fd_sc_hd__inv_2
*CAP
1 *635:B 0.000202638
2 *634:A 1.05036e-05
3 *633:Y 8.19327e-05
4 *63:8 0.000295075
5 *634:A *638:A 4.77719e-05
6 *635:B *636:A 2.86975e-05
7 *635:B *636:B 5.40034e-05
8 *635:B *637:A 8.64421e-05
9 *635:B *638:A 7.08493e-05
10 *63:8 *637:A 0
11 *637:B *635:B 0
12 *637:B *63:8 0
13 *60:18 *634:A 4.75959e-05
14 *60:18 *635:B 1.23379e-05
*RES
1 *633:Y *63:8 4.725 
2 *63:8 *634:A 4.05 
3 *63:8 *635:B 7.605 
*END

*D_NET *64 0.000906759
*CONN
*I *638:A I *D sky130_fd_sc_hd__nand2_1
*I *636:A I *D sky130_fd_sc_hd__nand2_1
*I *634:X O *D sky130_fd_sc_hd__or2_1
*CAP
1 *638:A 0.000162609
2 *636:A 1.04488e-05
3 *634:X 0
4 *64:4 0.000173058
5 *638:A *639:A 0.000159722
6 *638:A *68:10 5.11067e-05
7 *634:A *638:A 4.77719e-05
8 *635:B *636:A 2.86975e-05
9 *635:B *638:A 7.08493e-05
10 *639:B *638:A 0.000123969
11 *60:18 *636:A 2.79137e-05
12 *60:18 *638:A 5.06132e-05
*RES
1 *634:X *64:4 1.6 
2 *64:4 *636:A 2.05 
3 *64:4 *638:A 6.19 
*END

*D_NET *65 0.000293122
*CONN
*I *636:B I *D sky130_fd_sc_hd__nand2_1
*I *635:Y O *D sky130_fd_sc_hd__nand2_1
*CAP
1 *636:B 5.36141e-05
2 *635:Y 5.36141e-05
3 *636:B *637:A 9.77048e-06
4 *635:B *636:B 5.40034e-05
5 *60:18 *636:B 0.00012212
*RES
1 *635:Y *636:B 5.27 
*END

*D_NET *66 0.000934486
*CONN
*I *637:A I *D sky130_fd_sc_hd__nor2_1
*I *636:Y O *D sky130_fd_sc_hd__nand2_1
*CAP
1 *637:A 0.000262338
2 *636:Y 0.000262338
3 *637:A *672:D 0.000216892
4 *637:A *82:12 4.77757e-05
5 *635:B *637:A 8.64421e-05
6 *636:B *637:A 9.77048e-06
7 *637:B *637:A 4.89295e-05
8 *63:8 *637:A 0
*RES
1 *636:Y *637:A 12 
*END

*D_NET *67 0.000465129
*CONN
*I *640:A I *D sky130_fd_sc_hd__nand2_1
*I *638:Y O *D sky130_fd_sc_hd__nand2_1
*CAP
1 *640:A 0.000181459
2 *638:Y 0.000181459
3 *640:A *638:B 1.79098e-05
4 *640:A *639:A 2.65814e-06
5 *640:A *97:12 1.08105e-05
6 *59:10 *640:A 7.08331e-05
*RES
1 *638:Y *640:A 9.975 
*END

*D_NET *68 0.00145413
*CONN
*I *642:B I *D sky130_fd_sc_hd__nand2b_1
*I *640:B I *D sky130_fd_sc_hd__nand2_1
*I *639:X O *D sky130_fd_sc_hd__or2_1
*CAP
1 *642:B 0.000241789
2 *640:B 9.78474e-05
3 *639:X 0.000193845
4 *68:10 0.000533482
5 *640:B *711:A 0.000153681
6 *642:B *643:A 4.69705e-05
7 *642:B *644:B 6.03947e-06
8 *642:B *180:12 8.33066e-06
9 *638:A *68:10 5.11067e-05
10 *59:14 *640:B 0.000121036
*RES
1 *639:X *68:10 6.375 
2 *68:10 *640:B 6.12 
3 *68:10 *642:B 7.89375 
*END

*D_NET *69 0.000436825
*CONN
*I *641:A I *D sky130_fd_sc_hd__nor2_1
*I *640:Y O *D sky130_fd_sc_hd__nand2_1
*CAP
1 *641:A 6.23899e-05
2 *640:Y 6.23899e-05
3 *641:A *711:A 0.000195465
4 *641:B *641:A 5.19006e-06
5 *59:14 *641:A 6.81928e-05
6 *59:89 *641:A 4.31979e-05
*RES
1 *640:Y *641:A 5.39 
*END

*D_NET *70 0.000198074
*CONN
*I *644:A I *D sky130_fd_sc_hd__nand2_1
*I *642:Y O *D sky130_fd_sc_hd__nand2b_1
*CAP
1 *644:A 8.40669e-05
2 *642:Y 8.40669e-05
3 *644:A *644:B 2.53034e-05
4 *644:A *645:A 4.6368e-06
*RES
1 *642:Y *644:A 4.7 
*END

*D_NET *71 0.00165759
*CONN
*I *648:A I *D sky130_fd_sc_hd__nand2_1
*I *647:B I *D sky130_fd_sc_hd__nor2_1
*I *644:B I *D sky130_fd_sc_hd__nand2_1
*I *643:Y O *D sky130_fd_sc_hd__nand3_1
*CAP
1 *648:A 6.31408e-05
2 *647:B 0
3 *644:B 0.00024122
4 *643:Y 0
5 *71:21 0.00028047
6 *71:4 0.000458549
7 *644:B *180:21 8.53011e-05
8 *648:A *647:A 4.83425e-05
9 *648:A *74:14 7.11365e-05
10 *71:21 *538:B 8.41384e-05
11 *71:21 *643:C 0.000203161
12 *71:21 *650:A 8.53113e-06
13 *71:21 *74:14 2.41307e-05
14 *71:21 *180:21 3.63576e-05
15 *642:B *644:B 6.03947e-06
16 *644:A *644:B 2.53034e-05
17 *59:35 *71:21 2.17712e-05
*RES
1 *643:Y *71:4 1.6 
2 *71:4 *644:B 4.735 
3 *71:4 *71:21 8.05 
4 *71:21 *647:B 1.6 
5 *71:21 *648:A 3.46 
*END

*D_NET *72 0.00163768
*CONN
*I *645:A I *D sky130_fd_sc_hd__nor2_1
*I *644:Y O *D sky130_fd_sc_hd__nand2_1
*CAP
1 *645:A 0.000736334
2 *644:Y 0.000736334
3 *645:A *177:14 2.02993e-05
4 *644:A *645:A 4.6368e-06
5 *659:RESET_B *645:A 2.46089e-05
6 *685:A *645:A 0.000115464
*RES
1 *644:Y *645:A 15.93 
*END

*D_NET *73 0.000766129
*CONN
*I *648:B I *D sky130_fd_sc_hd__nand2_1
*I *647:A I *D sky130_fd_sc_hd__nor2_1
*I *646:Y O *D sky130_fd_sc_hd__inv_2
*CAP
1 *648:B 0
2 *647:A 8.76162e-05
3 *646:Y 0.000215272
4 *73:12 0.000302888
5 *647:A *649:B_N 1.19028e-05
6 *73:12 *649:B_N 2.01737e-05
7 *73:12 *84:12 7.41023e-05
8 *73:12 *85:12 5.83121e-06
9 *648:A *647:A 4.83425e-05
*RES
1 *646:Y *73:12 9.41 
2 *73:12 *647:A 3.46 
3 *73:12 *648:B 1.6 
*END

*D_NET *74 0.00251897
*CONN
*I *652:A I *D sky130_fd_sc_hd__nand2_1
*I *651:B I *D sky130_fd_sc_hd__or2_1
*I *649:A I *D sky130_fd_sc_hd__or2b_1
*I *647:Y O *D sky130_fd_sc_hd__nor2_1
*CAP
1 *652:A 2.8504e-05
2 *651:B 0.000221432
3 *649:A 0
4 *647:Y 0.000190377
5 *74:25 0.000551139
6 *74:14 0.000491581
7 *651:B *654:A 0.00019637
8 *651:B *143:114 0
9 *74:14 *538:B 2.17489e-05
10 *74:14 *649:B_N 2.23253e-05
11 *74:25 *538:A 7.30505e-05
12 *74:25 *538:B 3.21772e-05
13 *74:25 *652:B 3.5678e-06
14 *74:25 *84:12 8.52972e-05
15 *648:A *74:14 7.11365e-05
16 *17:37 *651:B 0.0004262
17 *17:96 *651:B 7.99303e-05
18 *71:21 *74:14 2.41307e-05
*RES
1 *647:Y *74:14 8.405 
2 *74:14 *649:A 1.6 
3 *74:14 *74:25 5.22 
4 *74:25 *651:B 11.135 
5 *74:25 *652:A 2.05 
*END

*D_NET *75 0.000392402
*CONN
*I *649:B_N I *D sky130_fd_sc_hd__or2b_1
*I *648:Y O *D sky130_fd_sc_hd__nand2_1
*CAP
1 *649:B_N 0.000156935
2 *648:Y 0.000156935
3 *649:B_N *84:12 2.41307e-05
4 *647:A *649:B_N 1.19028e-05
5 *73:12 *649:B_N 2.01737e-05
6 *74:14 *649:B_N 2.23253e-05
*RES
1 *648:Y *649:B_N 9.63 
*END

*D_NET *76 0.000521477
*CONN
*I *650:A I *D sky130_fd_sc_hd__nor2_1
*I *649:X O *D sky130_fd_sc_hd__or2b_1
*CAP
1 *650:A 0.000173578
2 *649:X 0.000173578
3 *59:35 *650:A 0.000165789
4 *71:21 *650:A 8.53113e-06
*RES
1 *649:X *650:A 10.875 
*END

*D_NET *77 0.000111545
*CONN
*I *653:A I *D sky130_fd_sc_hd__nand2_1
*I *651:X O *D sky130_fd_sc_hd__or2_1
*CAP
1 *653:A 5.81042e-06
2 *651:X 5.81042e-06
3 *653:A *653:B 4.99619e-05
4 *17:37 *653:A 4.99619e-05
*RES
1 *651:X *653:A 3.65 
*END

*D_NET *78 0.00265137
*CONN
*I *653:B I *D sky130_fd_sc_hd__nand2_1
*I *655:B I *D sky130_fd_sc_hd__xor2_1
*I *652:Y O *D sky130_fd_sc_hd__nand2_1
*CAP
1 *653:B 0.00025595
2 *655:B 0.000341231
3 *652:Y 0.000173596
4 *78:8 0.000770777
5 *653:B *143:114 0.000124311
6 *655:B *539:A 7.28465e-06
7 *655:B *656:A 8.52972e-05
8 *655:B *143:95 0.00011023
9 *655:B *143:101 0.000177023
10 *655:B *143:114 5.04423e-05
11 *78:8 *652:B 8.52972e-05
12 *78:8 *182:10 0.000118081
13 *653:A *653:B 4.99619e-05
14 *17:37 *653:B 0.000301891
*RES
1 *652:Y *78:8 5.775 
2 *78:8 *655:B 10.38 
3 *78:8 *653:B 9.15 
*END

*D_NET *79 0.00112698
*CONN
*I *654:A I *D sky130_fd_sc_hd__nor2_1
*I *653:Y O *D sky130_fd_sc_hd__nand2_1
*CAP
1 *654:A 0.000320837
2 *653:Y 0.000320837
3 *654:A *539:A 2.98587e-05
4 *654:A *143:101 9.12494e-06
5 *654:A *143:114 0.000103473
6 *651:B *654:A 0.00019637
7 *17:37 *654:A 0.000146484
*RES
1 *653:Y *654:A 12.135 
*END

*D_NET *80 0.00083389
*CONN
*I *656:A I *D sky130_fd_sc_hd__nor2_1
*I *655:X O *D sky130_fd_sc_hd__xor2_1
*CAP
1 *656:A 0.000214628
2 *655:X 0.000214628
3 *656:A *539:A 5.31158e-06
4 *654:B *656:A 5.31158e-06
5 *655:B *656:A 8.52972e-05
6 *661:D *656:A 0.000235378
7 *59:102 *656:A 7.33357e-05
*RES
1 *655:X *656:A 12.12 
*END

*D_NET *81 0.00169166
*CONN
*I *537:A I *D sky130_fd_sc_hd__nand2_1
*I *535:Y O *D sky130_fd_sc_hd__nor2_1
*CAP
1 *537:A 0.000227882
2 *535:Y 0.000227882
3 *537:A *537:B 7.0642e-05
4 *537:A *581:B 0.000496529
5 *537:A *83:10 4.9253e-06
6 *537:A *98:14 0.000117832
7 *537:A *143:16 4.82863e-05
8 *17:108 *537:A 0.000497681
*RES
1 *535:Y *537:A 14.91 
*END

*D_NET *82 0.00364313
*CONN
*I *580:A I *D sky130_fd_sc_hd__nor2_1
*I *537:B I *D sky130_fd_sc_hd__nand2_1
*I *536:Y O *D sky130_fd_sc_hd__nand2_1
*CAP
1 *580:A 0
2 *537:B 0.000302629
3 *536:Y 0.000705397
4 *82:12 0.00100803
5 *537:B *580:B 7.9642e-06
6 *537:B *581:B 0.000275553
7 *537:B *711:A 0
8 *537:B *124:10 0.000122331
9 *537:B *179:14 3.09233e-05
10 *82:12 *535:A 3.21081e-06
11 *82:12 *535:B 0.000148118
12 *82:12 *536:A 4.89295e-05
13 *82:12 *579:A 7.68414e-06
14 *82:12 *580:B 2.49909e-05
15 *82:12 *94:8 0.000122797
16 *82:12 *177:14 4.77719e-05
17 *82:12 *178:34 4.77757e-05
18 *82:12 *178:45 0.00033103
19 *82:12 *179:14 2.81759e-05
20 *537:A *537:B 7.0642e-05
21 *637:A *82:12 4.77757e-05
22 *637:B *82:12 0.000146998
23 *59:10 *537:B 0.000114406
*RES
1 *536:Y *82:12 13.48 
2 *82:12 *537:B 12.17 
3 *82:12 *580:A 1.6 
*END

*D_NET *83 0.000812634
*CONN
*I *541:A I *D sky130_fd_sc_hd__nor2_1
*I *577:A1 I *D sky130_fd_sc_hd__o21bai_1
*I *537:Y O *D sky130_fd_sc_hd__nand2_1
*CAP
1 *541:A 0
2 *577:A1 0.000126116
3 *537:Y 0.000196576
4 *83:10 0.000322692
5 *577:A1 *583:B 0
6 *577:A1 *586:B 0
7 *577:A1 *129:12 0.000162325
8 *83:10 *86:12 0
9 *537:A *83:10 4.9253e-06
*RES
1 *537:Y *83:10 6.12 
2 *83:10 *577:A1 6 
3 *83:10 *541:A 3.6 
*END

*D_NET *84 0.00141594
*CONN
*I *540:A I *D sky130_fd_sc_hd__nand2_1
*I *552:A I *D sky130_fd_sc_hd__nand3_1
*I *538:Y O *D sky130_fd_sc_hd__nor2_1
*CAP
1 *540:A 0
2 *552:A 8.20784e-05
3 *538:Y 0.000344685
4 *84:12 0.000426764
5 *552:A *552:B 0.000104623
6 *552:A *97:12 9.95246e-05
7 *84:12 *551:A 9.12494e-06
8 *84:12 *85:12 0.000165611
9 *649:B_N *84:12 2.41307e-05
10 *73:12 *84:12 7.41023e-05
11 *74:25 *84:12 8.52972e-05
*RES
1 *538:Y *84:12 12.11 
2 *84:12 *552:A 3.805 
3 *84:12 *540:A 1.6 
*END

*D_NET *85 0.00179211
*CONN
*I *552:B I *D sky130_fd_sc_hd__nand3_1
*I *540:B I *D sky130_fd_sc_hd__nand2_1
*I *539:Y O *D sky130_fd_sc_hd__nor2_1
*CAP
1 *552:B 0.000161179
2 *540:B 0
3 *539:Y 0.00050449
4 *85:12 0.00066567
5 *552:B *86:10 2.01737e-05
6 *552:B *97:12 2.1471e-05
7 *85:12 *539:A 2.88357e-05
8 *85:12 *711:A 8.37253e-05
9 *552:A *552:B 0.000104623
10 *665:D *85:12 3.04958e-05
11 *73:12 *85:12 5.83121e-06
12 *84:12 *85:12 0.000165611
*RES
1 *539:Y *85:12 13.175 
2 *85:12 *540:B 1.6 
3 *85:12 *552:B 4.84 
*END

*D_NET *86 0.00247031
*CONN
*I *581:A I *D sky130_fd_sc_hd__nor2_1
*I *541:B I *D sky130_fd_sc_hd__nor2_1
*I *577:A2 I *D sky130_fd_sc_hd__o21bai_1
*I *540:Y O *D sky130_fd_sc_hd__nand2_1
*CAP
1 *581:A 0
2 *541:B 6.50097e-05
3 *577:A2 0.000145266
4 *540:Y 0.000361045
5 *86:12 0.000354257
6 *86:10 0.000505026
7 *541:B *586:B 4.82919e-05
8 *541:B *617:B 4.66108e-05
9 *541:B *87:6 2.0514e-05
10 *541:B *87:16 4.41506e-05
11 *541:B *125:8 4.03631e-05
12 *541:B *129:12 4.99619e-05
13 *577:A2 *577:B1_N 9.53428e-06
14 *577:A2 *578:A 1.70733e-05
15 *577:A2 *583:B 0.000160658
16 *577:A2 *618:A2 2.75145e-05
17 *577:A2 *711:A 6.14689e-05
18 *577:A2 *119:12 0.00010878
19 *86:10 *711:A 1.14559e-05
20 *86:12 *583:B 2.92496e-05
21 *86:12 *711:A 6.15341e-05
22 *552:B *86:10 2.01737e-05
23 *661:D *86:10 0
24 *17:96 *86:10 9.46094e-05
25 *17:108 *86:10 0.000187766
26 *83:10 *86:12 0
*RES
1 *540:Y *86:10 9.45 
2 *86:10 *86:12 2.145 
3 *86:12 *577:A2 7.44 
4 *86:12 *541:B 5.445 
5 *86:10 *581:A 3.6 
*END

*D_NET *87 0.00406012
*CONN
*I *586:B I *D sky130_fd_sc_hd__nor2_1
*I *616:C1 I *D sky130_fd_sc_hd__o211a_1
*I *547:A I *D sky130_fd_sc_hd__nand2_1
*I *541:Y O *D sky130_fd_sc_hd__nor2_1
*CAP
1 *586:B 5.03327e-05
2 *616:C1 0
3 *547:A 0.000307272
4 *541:Y 5.15858e-05
5 *87:16 0.00142215
6 *87:6 0.0012168
7 *547:A *616:B1 4.77757e-05
8 *547:A *92:24 0.000110055
9 *586:B *583:B 7.30547e-05
10 *586:B *125:8 4.82919e-05
11 *87:6 *129:12 4.99619e-05
12 *87:16 *616:B1 0.00018285
13 *87:16 *617:B 0.000131572
14 *87:16 *124:10 0
15 *87:16 *143:16 1.32843e-05
16 *541:B *586:B 4.82919e-05
17 *541:B *87:6 2.0514e-05
18 *541:B *87:16 4.41506e-05
19 *577:A1 *586:B 0
20 *608:A *547:A 0.000163199
21 *59:10 *87:16 7.89767e-05
*RES
1 *541:Y *87:6 2.395 
2 *87:6 *87:16 20.335 
3 *87:16 *547:A 11.15 
4 *87:16 *616:C1 1.6 
5 *87:6 *586:B 6.92 
*END

*D_NET *88 0.00728731
*CONN
*I *543:B I *D sky130_fd_sc_hd__nor2_1
*I *591:B1 I *D sky130_fd_sc_hd__o311a_1
*I *598:A I *D sky130_fd_sc_hd__nand2_1
*I *606:B1 I *D sky130_fd_sc_hd__o21a_1
*I *570:B I *D sky130_fd_sc_hd__nor2_1
*I *558:A I *D sky130_fd_sc_hd__nor2_1
*I *542:Y O *D sky130_fd_sc_hd__inv_6
*CAP
1 *543:B 0.000204111
2 *591:B1 0.000175559
3 *598:A 1.72891e-05
4 *606:B1 5.12629e-05
5 *570:B 0.000134263
6 *558:A 0
7 *542:Y 0
8 *88:68 0.000703488
9 *88:49 0.000731758
10 *88:16 0.000914342
11 *88:6 0.000971769
12 *88:4 0.000531078
13 *543:B *560:A1 2.31442e-05
14 *543:B *560:B1 0.000178952
15 *543:B *572:A 8.08076e-05
16 *543:B *89:12 9.12494e-06
17 *543:B *90:92 1.48927e-05
18 *543:B *101:33 0.000105518
19 *543:B *144:87 0.00012179
20 *570:B *558:B 4.72815e-05
21 *570:B *570:A 4.77719e-05
22 *570:B *712:A 6.98693e-05
23 *570:B *114:8 5.83121e-06
24 *591:B1 *560:B1 7.03219e-05
25 *591:B1 *572:A 2.23253e-05
26 *591:B1 *591:C1 4.66108e-05
27 *591:B1 *603:A1 4.66108e-05
28 *591:B1 *144:69 6.11215e-05
29 *598:A *144:10 3.50152e-06
30 *598:A *144:69 3.5678e-06
31 *88:6 *606:A2 0.000123955
32 *88:16 *558:B 0
33 *88:16 *570:A 0
34 *88:49 *606:A2 0.000261609
35 *88:49 *105:8 8.35068e-05
36 *88:49 *144:6 4.89295e-05
37 *88:49 *144:10 4.21518e-05
38 *88:49 *144:69 2.49909e-05
39 *88:68 *686:A 6.81992e-05
40 *88:68 *90:10 4.23917e-05
41 *88:68 *105:8 1.08758e-05
42 *88:68 *144:69 0.000290403
43 *603:A2 *591:B1 1.77945e-05
44 *603:A2 *88:68 0.000306863
45 *608:A *88:16 0.000166346
46 *666:D *88:16 1.54061e-06
47 *26:10 *88:68 4.76051e-05
48 *44:10 *88:68 4.58691e-05
49 *46:10 *88:16 0.000310313
*RES
1 *542:Y *88:4 1.6 
2 *88:4 *88:6 1.83 
3 *88:6 *88:16 17.515 
4 *88:16 *558:A 1.6 
5 *88:16 *570:B 4.495 
6 *88:6 *606:B1 2.47 
7 *88:4 *88:49 10.24 
8 *88:49 *598:A 1.96 
9 *88:49 *88:68 12.855 
10 *88:68 *591:B1 7.02 
11 *88:68 *543:B 8.85 
*END

*D_NET *89 0.00250102
*CONN
*I *588:A I *D sky130_fd_sc_hd__and2_1
*I *617:A I *D sky130_fd_sc_hd__nand2_1
*I *545:A I *D sky130_fd_sc_hd__nand2_1
*I *543:Y O *D sky130_fd_sc_hd__nor2_1
*CAP
1 *588:A 0
2 *617:A 0.000270242
3 *545:A 0
4 *543:Y 0.000135366
5 *89:16 0.000566787
6 *89:12 0.000431912
7 *617:A *546:A 1.92979e-05
8 *617:A *583:B 3.18735e-05
9 *617:A *617:B 7.34961e-06
10 *617:A *618:A1 0.000122331
11 *617:A *124:16 4.43044e-05
12 *89:12 *571:B 0.000136231
13 *89:12 *611:B 6.97118e-05
14 *89:12 *686:A 1.23331e-05
15 *89:12 *90:92 0
16 *89:12 *131:8 3.51884e-05
17 *89:12 *144:87 9.12494e-06
18 *89:16 *588:B 1.52184e-05
19 *89:16 *592:A 0
20 *89:16 *90:92 0
21 *89:16 *124:16 5.53249e-06
22 *89:16 *127:10 0
23 *543:B *89:12 9.12494e-06
24 *595:A *89:16 0
25 *618:B1 *617:A 1.72517e-05
26 *627:A *89:12 0.000124895
27 *627:B *89:12 0.000116158
28 *45:10 *89:12 0.000311288
29 *59:10 *89:12 9.50342e-06
*RES
1 *543:Y *89:12 10.61 
2 *89:12 *89:16 6.44 
3 *89:16 *545:A 3.6 
4 *89:16 *617:A 7.77 
5 *89:12 *588:A 1.6 
*END

*D_NET *90 0.0109065
*CONN
*I *618:A1 I *D sky130_fd_sc_hd__a211oi_1
*I *545:B I *D sky130_fd_sc_hd__nand2_1
*I *591:C1 I *D sky130_fd_sc_hd__o311a_1
*I *570:A I *D sky130_fd_sc_hd__nor2_1
*I *609:A2 I *D sky130_fd_sc_hd__a21oi_1
*I *598:B I *D sky130_fd_sc_hd__nand2_1
*I *564:B I *D sky130_fd_sc_hd__nor2_1
*I *606:A2 I *D sky130_fd_sc_hd__o21a_1
*I *544:X O *D sky130_fd_sc_hd__clkbuf_2
*CAP
1 *618:A1 0.000164611
2 *545:B 5.20701e-05
3 *591:C1 9.48412e-05
4 *570:A 0.000511802
5 *609:A2 0
6 *598:B 0
7 *564:B 0.000149063
8 *606:A2 0.000201842
9 *544:X 0.000157086
10 *90:92 0.000693353
11 *90:79 0.000571513
12 *90:49 0.00118791
13 *90:16 0.000446891
14 *90:12 0.000199607
15 *90:10 0.00121617
16 *90:6 0.000593529
17 *545:B *583:A 4.11713e-05
18 *545:B *92:24 1.34594e-05
19 *564:B *564:A 0.000241281
20 *564:B *567:A 3.09179e-05
21 *564:B *569:A 0.000170856
22 *570:A *558:B 0.000308584
23 *570:A *571:A 0.000185398
24 *570:A *571:B 0
25 *570:A *609:A1 1.96856e-05
26 *570:A *610:A 0.000136658
27 *570:A *101:33 0
28 *591:C1 *560:A1 0.000199811
29 *591:C1 *592:C 6.05913e-05
30 *591:C1 *144:69 4.77807e-05
31 *606:A2 *564:A 6.48713e-05
32 *606:A2 *606:A1 0.000496944
33 *618:A1 *711:A 2.75229e-05
34 *618:A1 *124:16 6.28843e-05
35 *90:6 *142:8 2.88357e-05
36 *90:10 *686:A 0.000131567
37 *90:12 *105:14 1.7211e-05
38 *90:16 *105:14 8.64752e-05
39 *90:49 *609:A1 9.09788e-06
40 *90:49 *672:D 9.12663e-06
41 *90:49 *105:36 3.1191e-05
42 *90:49 *144:31 7.95188e-06
43 *90:49 *146:29 0.000400045
44 *90:49 *146:33 0.000166196
45 *90:92 *560:A1 0.000249996
46 *90:92 *588:B 0
47 *90:92 *592:C 0.000106312
48 *90:92 *594:B 0.000162332
49 *90:92 *124:16 1.70935e-05
50 *90:92 *131:25 0.000183738
51 *543:B *90:92 1.48927e-05
52 *570:B *570:A 4.77719e-05
53 *591:B1 *591:C1 4.66108e-05
54 *595:A *545:B 4.82863e-05
55 *607:B *90:12 0.00015897
56 *607:B *90:49 2.07338e-05
57 *608:A *570:A 0
58 *617:A *618:A1 0.000122331
59 *618:B1 *618:A1 1.17309e-05
60 *627:B *90:92 5.13029e-05
61 *26:10 *90:16 0
62 *44:10 *90:49 0
63 *59:10 *618:A1 0
64 *59:10 *90:92 0
65 *88:6 *606:A2 0.000123955
66 *88:16 *570:A 0
67 *88:49 *606:A2 0.000261609
68 *88:68 *90:10 4.23917e-05
69 *89:12 *90:92 0
70 *89:16 *90:92 0
*RES
1 *544:X *90:6 3.775 
2 *90:6 *90:10 8.315 
3 *90:10 *90:12 2.4 
4 *90:12 *90:16 3.89 
5 *90:16 *606:A2 7.57 
6 *90:16 *564:B 5.425 
7 *90:12 *598:B 3.6 
8 *90:10 *90:49 3.96527 
9 *90:49 *609:A2 3.6 
10 *90:49 *570:A 13.47 
11 *90:6 *90:79 2 
12 *90:79 *591:C1 6.45 
13 *90:79 *90:92 10.305 
14 *90:92 *545:B 4.755 
15 *90:92 *618:A1 6.915 
*END

*D_NET *91 0.000847915
*CONN
*I *546:A I *D sky130_fd_sc_hd__inv_2
*I *545:Y O *D sky130_fd_sc_hd__nand2_1
*CAP
1 *546:A 0.000385322
2 *545:Y 0.000385322
3 *546:A *584:A 1.92979e-05
4 *546:A *124:16 1.93765e-05
5 *546:A *129:12 1.92979e-05
6 *617:A *546:A 1.92979e-05
*RES
1 *545:Y *546:A 9.2274 
*END

*D_NET *92 0.00507551
*CONN
*I *578:B I *D sky130_fd_sc_hd__nand2_1
*I *583:C I *D sky130_fd_sc_hd__nand3_1
*I *547:B I *D sky130_fd_sc_hd__nand2_1
*I *614:A2 I *D sky130_fd_sc_hd__a21o_1
*I *546:Y O *D sky130_fd_sc_hd__inv_2
*CAP
1 *578:B 0.000232
2 *583:C 0
3 *547:B 2.64408e-05
4 *614:A2 4.53972e-05
5 *546:Y 0
6 *92:24 0.00121494
7 *92:16 0.0013937
8 *92:4 0.000482605
9 *578:B *129:12 0
10 *614:A2 *615:A1 3.09164e-05
11 *614:A2 *93:8 0.000109995
12 *92:16 *583:B 8.05779e-05
13 *92:16 *584:A 6.08203e-05
14 *92:16 *584:B 2.31379e-05
15 *92:24 *554:A 9.18707e-05
16 *92:24 *583:A 0.000194144
17 *92:24 *583:B 4.99619e-05
18 *92:24 *584:B 3.34783e-05
19 *92:24 *100:10 0.000348378
20 *545:B *92:24 1.34594e-05
21 *547:A *92:24 0.000110055
22 *595:A *92:16 5.79231e-05
23 *595:A *92:24 2.97782e-05
24 *608:A *614:A2 0
25 *608:A *92:24 0.000238137
26 *669:D *547:B 4.38051e-05
27 *669:D *614:A2 0.000163992
*RES
1 *546:Y *92:4 1.6 
2 *92:4 *92:16 7.93 
3 *92:16 *92:24 21.455 
4 *92:24 *614:A2 5.49 
5 *92:24 *547:B 4.215 
6 *92:16 *583:C 1.6 
7 *92:4 *578:B 8.465 
*END

*D_NET *93 0.00187554
*CONN
*I *555:A I *D sky130_fd_sc_hd__nor2_1
*I *615:A1 I *D sky130_fd_sc_hd__o21ai_1
*I *547:Y O *D sky130_fd_sc_hd__nand2_1
*CAP
1 *555:A 0.00021027
2 *615:A1 0.00018263
3 *547:Y 2.87519e-05
4 *93:8 0.000421652
5 *555:A *555:B 0.000134704
6 *555:A *670:D 1.61831e-05
7 *615:A1 *615:A2 0.000278123
8 *615:A1 *100:10 6.45236e-05
9 *93:8 *100:10 0.000118527
10 *614:A2 *615:A1 3.09164e-05
11 *614:A2 *93:8 0.000109995
12 *614:B1 *555:A 8.88715e-05
13 *615:B1 *615:A1 0
14 *669:D *615:A1 0.000181095
15 *47:10 *615:A1 9.29751e-06
*RES
1 *547:Y *93:8 4.98 
2 *93:8 *615:A1 8.94 
3 *93:8 *555:A 7.515 
*END

*D_NET *94 0.00350521
*CONN
*I *629:A I *D sky130_fd_sc_hd__or2_1
*I *630:B I *D sky130_fd_sc_hd__nand2_1
*I *616:A1 I *D sky130_fd_sc_hd__o211a_1
*I *550:A I *D sky130_fd_sc_hd__nand2_1
*I *548:Y O *D sky130_fd_sc_hd__inv_2
*CAP
1 *629:A 0
2 *630:B 0.000157683
3 *616:A1 0.000182647
4 *550:A 0.000182799
5 *548:Y 0.000306214
6 *94:12 0.000477394
7 *94:10 0.000269632
8 *94:8 0.000306214
9 *550:A *549:A 0.000233568
10 *550:A *550:B 5.12969e-06
11 *550:A *712:A 5.3844e-05
12 *550:A *143:33 8.40213e-05
13 *550:A *159:10 9.43764e-06
14 *616:A1 *616:A2 0.000150848
15 *616:A1 *671:CLK 0
16 *616:A1 *712:A 0
17 *616:A1 *143:33 2.92496e-05
18 *630:B *672:CLK 0.000134827
19 *630:B *159:31 2.14129e-05
20 *94:8 *536:B 7.04462e-05
21 *94:12 *672:CLK 0.000197599
22 *94:12 *143:33 0.000155928
23 *94:12 *159:31 0.000270653
24 *613:A *616:A1 0
25 *613:A *94:12 0
26 *621:A *550:A 4.82863e-05
27 *621:A *94:12 2.25161e-05
28 *621:B *94:8 0
29 *630:A *630:B 0
30 *669:D *616:A1 7.00889e-06
31 *685:A *630:B 5.05066e-06
32 *82:12 *94:8 0.000122797
*RES
1 *548:Y *94:8 5.515 
2 *94:8 *94:10 2 
3 *94:10 *94:12 4.185 
4 *94:12 *550:A 7.62 
5 *94:12 *616:A1 7.395 
6 *94:10 *630:B 6.375 
7 *94:8 *629:A 1.6 
*END

*D_NET *95 0.000193246
*CONN
*I *550:B I *D sky130_fd_sc_hd__nand2_1
*I *549:Y O *D sky130_fd_sc_hd__inv_2
*CAP
1 *550:B 5.11871e-05
2 *549:Y 5.11871e-05
3 *550:B *554:A 2.49909e-05
4 *550:B *712:A 1.08758e-05
5 *550:B *96:8 4.98756e-05
6 *550:A *550:B 5.12969e-06
*RES
1 *549:Y *550:B 4.355 
*END

*D_NET *96 0.001017
*CONN
*I *585:A2 I *D sky130_fd_sc_hd__a21oi_1
*I *553:B I *D sky130_fd_sc_hd__or3_1
*I *550:Y O *D sky130_fd_sc_hd__nand2_1
*CAP
1 *585:A2 0
2 *553:B 8.70507e-05
3 *550:Y 0.000283353
4 *96:8 0.000370404
5 *96:8 *549:A 8.52845e-05
6 *96:8 *553:C 5.78262e-05
7 *96:8 *554:A 6.90957e-05
8 *96:8 *712:A 1.41095e-05
9 *550:B *96:8 4.98756e-05
*RES
1 *550:Y *96:8 6.895 
2 *96:8 *553:B 2.92 
3 *96:8 *585:A2 1.6 
*END

*D_NET *97 0.000539221
*CONN
*I *552:C I *D sky130_fd_sc_hd__nand3_1
*I *638:B I *D sky130_fd_sc_hd__nand2_1
*I *551:Y O *D sky130_fd_sc_hd__inv_2
*CAP
1 *552:C 0
2 *638:B 1.66133e-05
3 *551:Y 0.000144669
4 *97:12 0.000161282
5 *638:B *98:14 1.91597e-05
6 *97:12 *98:14 4.77807e-05
7 *552:A *97:12 9.95246e-05
8 *552:B *97:12 2.1471e-05
9 *640:A *638:B 1.79098e-05
10 *640:A *97:12 1.08105e-05
*RES
1 *551:Y *97:12 4.255 
2 *97:12 *638:B 2.05 
3 *97:12 *552:C 1.6 
*END

*D_NET *98 0.00200618
*CONN
*I *585:B1 I *D sky130_fd_sc_hd__a21oi_1
*I *553:C I *D sky130_fd_sc_hd__or3_1
*I *552:Y O *D sky130_fd_sc_hd__nand3_1
*CAP
1 *585:B1 0
2 *553:C 0.000169119
3 *552:Y 0.0004052
4 *98:14 0.000574318
5 *553:C *585:A1 1.07157e-05
6 *553:C *178:8 2.78196e-05
7 *98:14 *581:B 5.12017e-06
8 *98:14 *639:A 0.000100593
9 *98:14 *643:C 0.000154515
10 *98:14 *687:A 0.000164874
11 *98:14 *122:8 8.57747e-05
12 *98:14 *143:16 6.55328e-05
13 *537:A *98:14 0.000117832
14 *638:B *98:14 1.91597e-05
15 *59:10 *98:14 0
16 *96:8 *553:C 5.78262e-05
17 *97:12 *98:14 4.77807e-05
*RES
1 *552:Y *98:14 13.775 
2 *98:14 *553:C 8.165 
3 *98:14 *585:B1 1.6 
*END

*D_NET *99 0.00146339
*CONN
*I *554:A I *D sky130_fd_sc_hd__inv_2
*I *553:X O *D sky130_fd_sc_hd__or3_1
*CAP
1 *554:A 0.000374891
2 *553:X 0.000374891
3 *554:A *616:B1 0.00013994
4 *554:A *672:D 0.00010467
5 *554:A *712:A 0.000283043
6 *550:B *554:A 2.49909e-05
7 *92:24 *554:A 9.18707e-05
8 *96:8 *554:A 6.90957e-05
*RES
1 *553:X *554:A 14.625 
*END

*D_NET *100 0.00281028
*CONN
*I *614:A1 I *D sky130_fd_sc_hd__a21o_1
*I *555:B I *D sky130_fd_sc_hd__nor2_1
*I *615:A2 I *D sky130_fd_sc_hd__o21ai_1
*I *554:Y O *D sky130_fd_sc_hd__inv_2
*CAP
1 *614:A1 0
2 *555:B 0.000160505
3 *615:A2 0.000159887
4 *554:Y 0.00031905
5 *100:25 0.000242365
6 *100:10 0.000560796
7 *555:B *670:D 2.75145e-05
8 *555:A *555:B 0.000134704
9 *608:A *100:10 0
10 *614:B1 *555:B 0.00011671
11 *614:B1 *615:A2 9.76522e-05
12 *614:B1 *100:10 1.52184e-05
13 *614:B1 *100:25 0.000120655
14 *615:A1 *615:A2 0.000278123
15 *615:A1 *100:10 6.45236e-05
16 *615:B1 *615:A2 7.00889e-06
17 *47:10 *615:A2 3.86607e-05
18 *92:24 *100:10 0.000348378
19 *93:8 *100:10 0.000118527
*RES
1 *554:Y *100:10 8.955 
2 *100:10 *615:A2 7.305 
3 *100:10 *100:25 3.14 
4 *100:25 *555:B 4.495 
5 *100:25 *614:A1 1.6 
*END

*D_NET *101 0.00389265
*CONN
*I *557:A I *D sky130_fd_sc_hd__inv_2
*I *610:B I *D sky130_fd_sc_hd__nor2_1
*I *560:B1 I *D sky130_fd_sc_hd__o21a_1
*I *556:Y O *D sky130_fd_sc_hd__nand2_1
*CAP
1 *557:A 0
2 *610:B 0.000102033
3 *560:B1 0.000176244
4 *556:Y 0
5 *101:33 0.000784705
6 *101:6 0.000858916
7 *560:B1 *560:A1 0.000260034
8 *560:B1 *569:B 5.23362e-05
9 *560:B1 *603:A1 0.000153971
10 *610:B *558:B 0.000106646
11 *610:B *573:A 4.89295e-05
12 *101:33 *560:A1 6.04287e-05
13 *101:33 *572:A 0.000119052
14 *101:33 *572:B 1.10951e-05
15 *101:33 *573:A 4.77719e-05
16 *101:33 *601:B 0.000193129
17 *101:33 *625:C 1.14192e-05
18 *101:33 *115:16 3.302e-05
19 *101:33 *116:8 2.747e-05
20 *101:33 *117:14 9.05146e-05
21 *543:B *560:B1 0.000178952
22 *543:B *101:33 0.000105518
23 *570:A *101:33 0
24 *591:B1 *560:B1 7.03219e-05
25 *626:A *610:B 0.000235339
26 *626:A *101:33 3.75126e-05
27 *626:B *101:33 0.000120593
28 *47:10 *610:B 6.69608e-06
*RES
1 *556:Y *101:6 3.6 
2 *101:6 *560:B1 9.315 
3 *101:6 *101:33 16.845 
4 *101:33 *610:B 4.81 
5 *101:33 *557:A 1.6 
*END

*D_NET *102 0.00185207
*CONN
*I *573:A I *D sky130_fd_sc_hd__nand2_1
*I *558:B I *D sky130_fd_sc_hd__nor2_1
*I *557:Y O *D sky130_fd_sc_hd__inv_2
*CAP
1 *573:A 0.00014554
2 *558:B 0.000417668
3 *557:Y 0
4 *102:4 0.000563209
5 *573:A *117:14 1.19928e-05
6 *570:A *558:B 0.000308584
7 *570:B *558:B 4.72815e-05
8 *610:B *558:B 0.000106646
9 *610:B *573:A 4.89295e-05
10 *626:A *573:A 6.95273e-05
11 *627:C *573:A 8.49205e-05
12 *88:16 *558:B 0
13 *101:33 *573:A 4.77719e-05
*RES
1 *557:Y *102:4 1.6 
2 *102:4 *558:B 12.785 
3 *102:4 *573:A 4.75 
*END

*D_NET *103 0.0012528
*CONN
*I *591:A3 I *D sky130_fd_sc_hd__o311a_1
*I *560:A2 I *D sky130_fd_sc_hd__o21a_1
*I *599:A I *D sky130_fd_sc_hd__nand2_1
*I *559:Y O *D sky130_fd_sc_hd__inv_2
*CAP
1 *591:A3 4.96406e-05
2 *560:A2 8.36352e-05
3 *599:A 6.51838e-05
4 *559:Y 0
5 *103:17 0.000270337
6 *103:4 0.000202245
7 *560:A2 *112:19 0.000123225
8 *591:A3 *560:A1 2.79799e-05
9 *599:A *602:C 0.000174409
10 *103:17 *560:A1 2.41369e-05
11 *103:17 *591:A2 0
12 *600:A *599:A 7.60965e-05
13 *600:A *103:17 0.000116158
14 *603:B1 *591:A3 3.54721e-05
15 *603:B1 *103:17 4.28112e-06
*RES
1 *559:Y *103:4 1.6 
2 *103:4 *599:A 3.7 
3 *103:4 *103:17 4.145 
4 *103:17 *560:A2 4.74 
5 *103:17 *591:A3 4.725 
*END

*D_NET *104 0.000558075
*CONN
*I *567:A I *D sky130_fd_sc_hd__nand2_1
*I *560:X O *D sky130_fd_sc_hd__o21a_1
*CAP
1 *567:A 0.00010566
2 *560:X 0.00010566
3 *567:A *564:A 4.10542e-05
4 *567:A *569:A 1.33293e-05
5 *567:A *569:B 4.99619e-05
6 *567:A *600:B 0.0001249
7 *567:A *108:6 8.65905e-05
8 *564:B *567:A 3.09179e-05
*RES
1 *560:X *567:A 6.08 
*END

*D_NET *105 0.00322715
*CONN
*I *624:B I *D sky130_fd_sc_hd__nand2_1
*I *609:B1 I *D sky130_fd_sc_hd__a21oi_1
*I *602:B I *D sky130_fd_sc_hd__nand3_1
*I *563:A I *D sky130_fd_sc_hd__nand2_1
*I *561:Y O *D sky130_fd_sc_hd__inv_2
*CAP
1 *624:B 0
2 *609:B1 2.71364e-05
3 *602:B 8.88775e-05
4 *563:A 2.08101e-05
5 *561:Y 6.42295e-05
6 *105:36 0.000391264
7 *105:14 0.000404328
8 *105:8 0.000722998
9 *563:A *566:A 0
10 *563:A *602:C 0
11 *602:B *566:A 8.43862e-05
12 *609:B1 *607:A 8.41384e-05
13 *105:14 *563:B 8.8266e-05
14 *105:14 *566:A 3.00381e-05
15 *105:14 *567:B 0
16 *105:14 *606:A1 0.000155056
17 *105:14 *144:31 7.06347e-05
18 *105:36 *607:A 1.77747e-05
19 *105:36 *624:A 2.85515e-05
20 *105:36 *116:8 1.91597e-05
21 *105:36 *118:6 0.000234181
22 *105:36 *144:31 0.000231417
23 *607:B *609:B1 4.66108e-05
24 *607:B *105:14 8.33066e-06
25 *607:B *105:36 0.000179704
26 *26:10 *105:14 0
27 *88:49 *105:8 8.35068e-05
28 *88:68 *105:8 1.08758e-05
29 *90:12 *105:14 1.7211e-05
30 *90:16 *105:14 8.64752e-05
31 *90:49 *105:36 3.1191e-05
*RES
1 *561:Y *105:8 4.395 
2 *105:8 *105:14 7.925 
3 *105:14 *563:A 1.96 
4 *105:14 *602:B 3.085 
5 *105:8 *105:36 8.99 
6 *105:36 *609:B1 2.395 
7 *105:36 *624:B 1.6 
*END

*D_NET *106 0.000414156
*CONN
*I *563:B I *D sky130_fd_sc_hd__nand2_1
*I *562:Y O *D sky130_fd_sc_hd__inv_2
*CAP
1 *563:B 0.000162945
2 *562:Y 0.000162945
3 *105:14 *563:B 8.8266e-05
*RES
1 *562:Y *563:B 9.975 
*END

*D_NET *107 0.000578685
*CONN
*I *566:A I *D sky130_fd_sc_hd__nand3_1
*I *563:Y O *D sky130_fd_sc_hd__nand2_1
*CAP
1 *566:A 0.000122106
2 *563:Y 0.000122106
3 *566:A *567:B 0.000198939
4 *566:A *602:C 2.11084e-05
5 *563:A *566:A 0
6 *602:B *566:A 8.43862e-05
7 *105:14 *566:A 3.00381e-05
*RES
1 *563:Y *566:A 6.425 
*END

*D_NET *108 0.00116986
*CONN
*I *600:B I *D sky130_fd_sc_hd__nand3_1
*I *566:B I *D sky130_fd_sc_hd__nand3_1
*I *564:Y O *D sky130_fd_sc_hd__nor2_1
*CAP
1 *600:B 0.000283788
2 *566:B 6.94885e-05
3 *564:Y 5.74818e-05
4 *108:6 0.000410758
5 *600:B *560:A1 3.00381e-05
6 *600:B *569:B 2.30292e-05
7 *600:B *112:19 5.49973e-05
8 *567:A *600:B 0.0001249
9 *567:A *108:6 8.65905e-05
10 *603:C1 *566:B 2.87867e-05
11 *26:10 *566:B 0
*RES
1 *564:Y *108:6 2.395 
2 *108:6 *566:B 6.725 
3 *108:6 *600:B 5.515 
*END

*D_NET *109 0.00116674
*CONN
*I *599:B I *D sky130_fd_sc_hd__nand2_1
*I *566:C I *D sky130_fd_sc_hd__nand3_1
*I *565:Y O *D sky130_fd_sc_hd__inv_2
*CAP
1 *599:B 0
2 *566:C 3.73572e-05
3 *565:Y 0.000421423
4 *109:12 0.000458781
5 *566:C *602:C 5.05437e-05
6 *109:12 *174:12 0.000163204
7 *667:D *109:12 0
8 *17:200 *109:12 3.5434e-05
9 *26:10 *109:12 0
*RES
1 *565:Y *109:12 11.135 
2 *109:12 *566:C 2.395 
3 *109:12 *599:B 1.6 
*END

*D_NET *110 0.000831553
*CONN
*I *567:B I *D sky130_fd_sc_hd__nand2_1
*I *566:Y O *D sky130_fd_sc_hd__nand3_1
*CAP
1 *567:B 0.000213242
2 *566:Y 0.000213242
3 *566:A *567:B 0.000198939
4 *667:D *567:B 5.16418e-05
5 *26:10 *567:B 0.000154488
6 *105:14 *567:B 0
*RES
1 *566:Y *567:B 11.43 
*END

*D_NET *111 0.000608298
*CONN
*I *569:A I *D sky130_fd_sc_hd__nand2_1
*I *567:Y O *D sky130_fd_sc_hd__nand2_1
*CAP
1 *569:A 0.000194776
2 *567:Y 0.000194776
3 *569:A *569:B 0
4 *569:A *572:A 8.33066e-06
5 *569:A *603:A1 0
6 *564:B *569:A 0.000170856
7 *567:A *569:A 1.33293e-05
8 *603:C1 *569:A 2.62297e-05
*RES
1 *567:Y *569:A 10.0125 
*END

*D_NET *112 0.00138062
*CONN
*I *603:A1 I *D sky130_fd_sc_hd__o211ai_2
*I *569:B I *D sky130_fd_sc_hd__nand2_1
*I *600:C I *D sky130_fd_sc_hd__nand3_1
*I *568:Y O *D sky130_fd_sc_hd__inv_2
*CAP
1 *603:A1 7.68398e-05
2 *569:B 5.43802e-05
3 *600:C 2.08101e-05
4 *568:Y 4.9795e-05
5 *112:19 0.000281543
6 *112:6 0.000220928
7 *603:A1 *572:A 4.80982e-05
8 *603:A1 *144:69 4.66108e-05
9 *112:19 *560:A1 2.75229e-05
10 *560:A2 *112:19 0.000123225
11 *560:B1 *569:B 5.23362e-05
12 *560:B1 *603:A1 0.000153971
13 *567:A *569:B 4.99619e-05
14 *569:A *569:B 0
15 *569:A *603:A1 0
16 *591:B1 *603:A1 4.66108e-05
17 *600:B *569:B 2.30292e-05
18 *600:B *112:19 5.49973e-05
19 *603:B1 *112:19 4.99619e-05
*RES
1 *568:Y *112:6 2.395 
2 *112:6 *600:C 1.96 
3 *112:6 *112:19 5.225 
4 *112:19 *569:B 5.01 
5 *112:19 *603:A1 5.94 
*END

*D_NET *113 0.00148289
*CONN
*I *572:A I *D sky130_fd_sc_hd__nand2_1
*I *569:Y O *D sky130_fd_sc_hd__nand2_1
*CAP
1 *572:A 0.00037813
2 *569:Y 0.00037813
3 *572:A *601:B 2.49909e-05
4 *572:A *686:A 0.000175596
5 *572:A *116:8 0
6 *543:B *572:A 8.08076e-05
7 *569:A *572:A 8.33066e-06
8 *591:B1 *572:A 2.23253e-05
9 *603:A1 *572:A 4.80982e-05
10 *603:B1 *572:A 7.21318e-05
11 *26:10 *572:A 0.000110483
12 *44:10 *572:A 6.4816e-05
13 *101:33 *572:A 0.000119052
*RES
1 *569:Y *572:A 16.23 
*END

*D_NET *114 0.00168354
*CONN
*I *616:B1 I *D sky130_fd_sc_hd__o211a_1
*I *571:A I *D sky130_fd_sc_hd__nand2_1
*I *570:Y O *D sky130_fd_sc_hd__nor2_1
*CAP
1 *616:B1 0.000318727
2 *571:A 0.000130725
3 *570:Y 4.48406e-05
4 *114:8 0.000494293
5 *571:A *571:B 2.97004e-06
6 *571:A *611:B 2.68526e-05
7 *571:A *712:A 4.1652e-06
8 *616:B1 *616:A2 9.13949e-06
9 *616:B1 *712:A 6.13386e-05
10 *547:A *616:B1 4.77757e-05
11 *554:A *616:B1 0.00013994
12 *570:A *571:A 0.000185398
13 *570:B *114:8 5.83121e-06
14 *612:A *571:A 2.86975e-05
15 *87:16 *616:B1 0.00018285
*RES
1 *570:Y *114:8 4.05 
2 *114:8 *571:A 6.705 
3 *114:8 *616:B1 9.645 
*END

*D_NET *115 0.00198488
*CONN
*I *597:A I *D sky130_fd_sc_hd__inv_2
*I *590:A1 I *D sky130_fd_sc_hd__o21ai_1
*I *572:B I *D sky130_fd_sc_hd__nand2_1
*I *571:Y O *D sky130_fd_sc_hd__nand2_1
*CAP
1 *597:A 0
2 *590:A1 0.000174096
3 *572:B 8.50696e-05
4 *571:Y 8.02637e-05
5 *115:16 0.000484387
6 *115:8 0.000305485
7 *572:B *117:14 0.000109743
8 *572:B *146:16 0
9 *590:A1 *573:B 0.000199021
10 *590:A1 *146:14 1.08758e-05
11 *115:8 *611:B 0.000322361
12 *115:16 *590:A2 0
13 *604:A2 *115:8 3.70488e-05
14 *604:B1 *115:16 0
15 *612:A *115:8 0.000103747
16 *627:C *590:A1 2.86691e-05
17 *627:C *115:16 0
18 *101:33 *572:B 1.10951e-05
19 *101:33 *115:16 3.302e-05
*RES
1 *571:Y *115:8 4.825 
2 *115:8 *115:16 5.21 
3 *115:16 *572:B 5.235 
4 *115:16 *590:A1 6.93 
5 *115:8 *597:A 1.6 
*END

*D_NET *116 0.000475314
*CONN
*I *574:A I *D sky130_fd_sc_hd__nand2_1
*I *625:A I *D sky130_fd_sc_hd__nand3_1
*I *572:Y O *D sky130_fd_sc_hd__nand2_1
*CAP
1 *574:A 0
2 *625:A 9.64862e-06
3 *572:Y 0.000102617
4 *116:8 0.000112266
5 *625:A *625:C 4.77719e-05
6 *625:A *118:6 2.20014e-05
7 *116:8 *625:C 3.76685e-05
8 *116:8 *117:14 4.89395e-05
9 *116:8 *118:6 4.77719e-05
10 *572:A *116:8 0
11 *101:33 *116:8 2.747e-05
12 *105:36 *116:8 1.91597e-05
*RES
1 *572:Y *116:8 3.79 
2 *116:8 *625:A 2.05 
3 *116:8 *574:A 1.6 
*END

*D_NET *117 0.000989288
*CONN
*I *625:C I *D sky130_fd_sc_hd__nand3_1
*I *574:B I *D sky130_fd_sc_hd__nand2_1
*I *573:Y O *D sky130_fd_sc_hd__nand2_1
*CAP
1 *625:C 8.74554e-05
2 *574:B 0
3 *573:Y 0.000112967
4 *117:14 0.000200422
5 *625:C *607:A 8.52845e-05
6 *625:C *118:6 4.57056e-05
7 *117:14 *144:31 2.0851e-06
8 *572:B *117:14 0.000109743
9 *573:A *117:14 1.19928e-05
10 *625:A *625:C 4.77719e-05
11 *626:A *117:14 1.08758e-05
12 *626:B *625:C 8.64421e-05
13 *101:33 *625:C 1.14192e-05
14 *101:33 *117:14 9.05146e-05
15 *116:8 *625:C 3.76685e-05
16 *116:8 *117:14 4.89395e-05
*RES
1 *573:Y *117:14 7.88 
2 *117:14 *574:B 1.6 
3 *117:14 *625:C 4.135 
*END

*D_NET *118 0.00119822
*CONN
*I *624:A I *D sky130_fd_sc_hd__nand2_1
*I *575:A I *D sky130_fd_sc_hd__inv_2
*I *574:Y O *D sky130_fd_sc_hd__nand2_1
*CAP
1 *624:A 2.7847e-05
2 *575:A 0.000262575
3 *574:Y 5.03847e-05
4 *118:6 0.000340807
5 *575:A *144:31 0
6 *575:A *146:59 8.24814e-05
7 *118:6 *607:A 1.07623e-05
8 *607:B *575:A 4.5149e-05
9 *625:A *118:6 2.20014e-05
10 *625:C *118:6 4.57056e-05
11 *105:36 *624:A 2.85515e-05
12 *105:36 *118:6 0.000234181
13 *116:8 *118:6 4.77719e-05
*RES
1 *574:Y *118:6 3.775 
2 *118:6 *575:A 10.01 
3 *118:6 *624:A 2.215 
*END

*D_NET *119 0.00251686
*CONN
*I *577:B1_N I *D sky130_fd_sc_hd__o21bai_1
*I *618:A2 I *D sky130_fd_sc_hd__a211oi_1
*I *576:Y O *D sky130_fd_sc_hd__nand2_1
*CAP
1 *577:B1_N 1.85694e-05
2 *618:A2 2.75319e-05
3 *576:Y 0.00100345
4 *119:12 0.00104956
5 *577:B1_N *617:B 0
6 *119:12 *578:A 0.000111285
7 *119:12 *584:A 0.000160641
8 *577:A2 *577:B1_N 9.53428e-06
9 *577:A2 *618:A2 2.75145e-05
10 *577:A2 *119:12 0.00010878
*RES
1 *576:Y *119:12 20.63 
2 *119:12 *618:A2 2.05 
3 *119:12 *577:B1_N 1.96 
*END

*D_NET *120 0.000380823
*CONN
*I *578:A I *D sky130_fd_sc_hd__nand2_1
*I *577:Y O *D sky130_fd_sc_hd__o21bai_1
*CAP
1 *578:A 0.000126232
2 *577:Y 0.000126232
3 *577:A2 *578:A 1.70733e-05
4 *119:12 *578:A 0.000111285
*RES
1 *577:Y *578:A 5.75 
*END

*D_NET *121 0.000636597
*CONN
*I *584:A I *D sky130_fd_sc_hd__nand2_1
*I *578:Y O *D sky130_fd_sc_hd__nand2_1
*CAP
1 *584:A 0.000163352
2 *578:Y 0.000163352
3 *584:A *583:B 0
4 *584:A *129:12 4.8747e-05
5 *546:A *584:A 1.92979e-05
6 *595:A *584:A 2.03861e-05
7 *92:16 *584:A 6.08203e-05
8 *119:12 *584:A 0.000160641
*RES
1 *578:Y *584:A 10.065 
*END

*D_NET *122 0.0015416
*CONN
*I *639:A I *D sky130_fd_sc_hd__or2_1
*I *580:B I *D sky130_fd_sc_hd__nor2_1
*I *579:Y O *D sky130_fd_sc_hd__nand2_1
*CAP
1 *639:A 0.000159917
2 *580:B 0.000283169
3 *579:Y 5.51312e-05
4 *122:8 0.000498217
5 *580:B *179:14 5.31136e-05
6 *639:A *643:C 1.10951e-05
7 *537:B *580:B 7.9642e-06
8 *637:B *639:A 6.06947e-05
9 *637:B *122:8 2.06083e-05
10 *638:A *639:A 0.000159722
11 *640:A *639:A 2.65814e-06
12 *59:10 *580:B 1.79536e-05
13 *82:12 *580:B 2.49909e-05
14 *98:14 *639:A 0.000100593
15 *98:14 *122:8 8.57747e-05
*RES
1 *579:Y *122:8 4.5975 
2 *122:8 *580:B 5.6701 
3 *122:8 *639:A 6.9375 
*END

*D_NET *123 0.00342849
*CONN
*I *643:C I *D sky130_fd_sc_hd__nand3_1
*I *581:B I *D sky130_fd_sc_hd__nor2_1
*I *580:Y O *D sky130_fd_sc_hd__nor2_1
*CAP
1 *643:C 0.000490609
2 *581:B 0.00017538
3 *580:Y 6.22983e-05
4 *123:8 0.000728287
5 *581:B *143:16 8.53113e-06
6 *643:C *538:B 4.66108e-05
7 *123:8 *579:A 4.82919e-05
8 *123:8 *179:14 2.05056e-05
9 *537:A *581:B 0.000496529
10 *537:B *581:B 0.000275553
11 *637:B *643:C 0.000188098
12 *639:A *643:C 1.10951e-05
13 *59:10 *581:B 9.07817e-05
14 *59:10 *643:C 9.09765e-05
15 *59:35 *643:C 0.000332147
16 *71:21 *643:C 0.000203161
17 *98:14 *581:B 5.12017e-06
18 *98:14 *643:C 0.000154515
*RES
1 *580:Y *123:8 4.395 
2 *123:8 *581:B 9.345 
3 *123:8 *643:C 14.88 
*END

*D_NET *124 0.0018205
*CONN
*I *618:C1 I *D sky130_fd_sc_hd__a211oi_1
*I *594:A I *D sky130_fd_sc_hd__nand2_1
*I *583:A I *D sky130_fd_sc_hd__nand3_1
*I *581:Y O *D sky130_fd_sc_hd__nor2_1
*CAP
1 *618:C1 0
2 *594:A 0
3 *583:A 6.18578e-05
4 *581:Y 0.000231857
5 *124:16 0.000210185
6 *124:10 0.000380184
7 *124:10 *583:B 0
8 *124:10 *617:B 9.7872e-05
9 *124:10 *711:A 0.000287337
10 *124:16 *583:B 0
11 *537:B *124:10 0.000122331
12 *545:B *583:A 4.11713e-05
13 *546:A *124:16 1.93765e-05
14 *595:A *583:A 4.43682e-05
15 *617:A *124:16 4.43044e-05
16 *618:A1 *124:16 6.28843e-05
17 *59:10 *124:10 0
18 *59:10 *124:16 0
19 *87:16 *124:10 0
20 *89:16 *124:16 5.53249e-06
21 *90:92 *124:16 1.70935e-05
22 *92:24 *583:A 0.000194144
*RES
1 *581:Y *124:10 8.415 
2 *124:10 *124:16 4.34 
3 *124:16 *583:A 3.805 
4 *124:16 *594:A 1.6 
5 *124:10 *618:C1 3.6 
*END

*D_NET *125 0.00261414
*CONN
*I *586:A I *D sky130_fd_sc_hd__nor2_1
*I *617:B I *D sky130_fd_sc_hd__nand2_1
*I *583:B I *D sky130_fd_sc_hd__nand3_1
*I *582:Y O *D sky130_fd_sc_hd__inv_2
*CAP
1 *586:A 0
2 *617:B 0.000209839
3 *583:B 0.00020426
4 *582:Y 0.000168116
5 *125:8 0.000582215
6 *583:B *129:12 0
7 *617:B *711:A 5.4155e-06
8 *617:B *143:16 0.000132415
9 *617:B *143:80 1.33285e-05
10 *125:8 *129:12 4.16262e-05
11 *125:8 *143:6 9.53428e-06
12 *125:8 *143:80 0.000392136
13 *541:B *617:B 4.66108e-05
14 *541:B *125:8 4.03631e-05
15 *577:A1 *583:B 0
16 *577:A2 *583:B 0.000160658
17 *577:B1_N *617:B 0
18 *584:A *583:B 0
19 *586:B *583:B 7.30547e-05
20 *586:B *125:8 4.82919e-05
21 *595:A *583:B 4.82863e-05
22 *617:A *583:B 3.18735e-05
23 *617:A *617:B 7.34961e-06
24 *618:B1 *617:B 9.53428e-06
25 *59:10 *617:B 0
26 *86:12 *583:B 2.92496e-05
27 *87:16 *617:B 0.000131572
28 *92:16 *583:B 8.05779e-05
29 *92:24 *583:B 4.99619e-05
30 *124:10 *583:B 0
31 *124:10 *617:B 9.7872e-05
32 *124:16 *583:B 0
*RES
1 *582:Y *125:8 6.205 
2 *125:8 *583:B 9.98 
3 *125:8 *617:B 10.6625 
4 *125:8 *586:A 1.6 
*END

*D_NET *126 0.000377226
*CONN
*I *584:B I *D sky130_fd_sc_hd__nand2_1
*I *583:Y O *D sky130_fd_sc_hd__nand3_1
*CAP
1 *584:B 0.000111539
2 *583:Y 0.000111539
3 *584:B *127:10 8.40269e-05
4 *595:A *584:B 1.35054e-05
5 *92:16 *584:B 2.31379e-05
6 *92:24 *584:B 3.34783e-05
*RES
1 *583:Y *584:B 6.5375 
*END

*D_NET *127 0.00162505
*CONN
*I *596:B I *D sky130_fd_sc_hd__nor2_1
*I *592:A I *D sky130_fd_sc_hd__or3_1
*I *584:Y O *D sky130_fd_sc_hd__nand2_1
*CAP
1 *596:B 0
2 *592:A 0.000249815
3 *584:Y 0.000135623
4 *127:10 0.000385438
5 *592:A *590:B1 0.000156774
6 *592:A *593:A 0.000137571
7 *592:A *129:12 0
8 *592:A *146:10 6.23512e-05
9 *127:10 *129:12 0
10 *584:B *127:10 8.40269e-05
11 *595:A *127:10 0.000116158
12 *605:A *592:A 4.28112e-06
13 *622:C *592:A 4.77807e-05
14 *627:A *592:A 0.000116853
15 *38:10 *592:A 9.36361e-05
16 *45:10 *592:A 3.47421e-05
17 *89:16 *592:A 0
18 *89:16 *127:10 0
*RES
1 *584:Y *127:10 6.03 
2 *127:10 *592:A 9.825 
3 *127:10 *596:B 3.6 
*END

*D_NET *128 0.00193843
*CONN
*I *604:A1 I *D sky130_fd_sc_hd__a21oi_1
*I *590:A2 I *D sky130_fd_sc_hd__o21ai_1
*I *585:Y O *D sky130_fd_sc_hd__a21oi_1
*CAP
1 *604:A1 5.74818e-05
2 *590:A2 0.000319541
3 *585:Y 0.000419998
4 *128:8 0.000797021
5 *590:A2 *686:A 0
6 *590:A2 *146:14 2.19562e-06
7 *604:A1 *611:B 8.65905e-05
8 *128:8 *686:A 0
9 *128:8 *687:A 0
10 *623:A *590:A2 2.65814e-06
11 *627:C *590:A2 0.000201503
12 *685:A *128:8 5.14424e-05
13 *115:16 *590:A2 0
*RES
1 *585:Y *128:8 10.59 
2 *128:8 *590:A2 7.92 
3 *128:8 *604:A1 4.395 
*END

*D_NET *129 0.00135936
*CONN
*I *589:A I *D sky130_fd_sc_hd__nand2_1
*I *595:B I *D sky130_fd_sc_hd__nor2_1
*I *586:Y O *D sky130_fd_sc_hd__nor2_1
*CAP
1 *589:A 2.00398e-05
2 *595:B 0
3 *586:Y 0.000423126
4 *129:12 0.000443166
5 *589:A *589:B 5.05521e-05
6 *589:A *590:B1 5.05521e-05
7 *541:B *129:12 4.99619e-05
8 *546:A *129:12 1.92979e-05
9 *577:A1 *129:12 0.000162325
10 *578:B *129:12 0
11 *583:B *129:12 0
12 *584:A *129:12 4.8747e-05
13 *592:A *129:12 0
14 *595:A *129:12 0
15 *87:6 *129:12 4.99619e-05
16 *125:8 *129:12 4.16262e-05
17 *127:10 *129:12 0
*RES
1 *586:Y *129:12 13.055 
2 *129:12 *595:B 1.6 
3 *129:12 *589:A 2.395 
*END

*D_NET *130 0.00184343
*CONN
*I *588:B I *D sky130_fd_sc_hd__and2_1
*I *601:B I *D sky130_fd_sc_hd__nor2_1
*I *587:Y O *D sky130_fd_sc_hd__inv_2
*CAP
1 *588:B 0.000338888
2 *601:B 0.000162267
3 *587:Y 0
4 *130:4 0.000501155
5 *588:B *556:B 2.10905e-05
6 *588:B *592:C 3.98029e-05
7 *588:B *593:A 2.34423e-05
8 *588:B *145:23 7.38695e-05
9 *601:B *556:B 8.35118e-05
10 *601:B *144:81 5.61709e-05
11 *601:B *144:87 4.66108e-05
12 *572:A *601:B 2.49909e-05
13 *605:B *588:B 9.05592e-05
14 *45:10 *588:B 0.000172726
15 *89:16 *588:B 1.52184e-05
16 *90:92 *588:B 0
17 *101:33 *601:B 0.000193129
*RES
1 *587:Y *130:4 1.6 
2 *130:4 *601:B 5.185 
3 *130:4 *588:B 11.45 
*END

*D_NET *131 0.00515364
*CONN
*I *594:B I *D sky130_fd_sc_hd__nand2_1
*I *589:B I *D sky130_fd_sc_hd__nand2_1
*I *611:B I *D sky130_fd_sc_hd__nor2_1
*I *588:X O *D sky130_fd_sc_hd__and2_1
*CAP
1 *594:B 7.67989e-05
2 *589:B 0.000465705
3 *611:B 0.00090415
4 *588:X 0.00020138
5 *131:25 0.000634105
6 *131:8 0.00119713
7 *589:B *141:8 3.64622e-05
8 *611:B *571:B 3.43327e-05
9 *131:8 *593:A 1.08758e-05
10 *571:A *611:B 2.68526e-05
11 *589:A *589:B 5.05521e-05
12 *595:A *589:B 8.65961e-05
13 *596:A *589:B 1.61831e-05
14 *604:A1 *611:B 8.65905e-05
15 *604:A2 *611:B 1.68183e-05
16 *604:B1 *611:B 0.000136276
17 *612:A *611:B 0.000107408
18 *627:A *131:8 0.000219182
19 *45:10 *611:B 6.89033e-05
20 *48:8 *611:B 4.00541e-06
21 *59:10 *594:B 0
22 *59:10 *131:25 0
23 *89:12 *611:B 6.97118e-05
24 *89:12 *131:8 3.51884e-05
25 *90:92 *594:B 0.000162332
26 *90:92 *131:25 0.000183738
27 *115:8 *611:B 0.000322361
*RES
1 *588:X *131:8 5.17 
2 *131:8 *611:B 15.55 
3 *131:8 *131:25 4.145 
4 *131:25 *589:B 10.635 
5 *131:25 *594:B 5.49 
*END

*D_NET *132 0.00202891
*CONN
*I *590:B1 I *D sky130_fd_sc_hd__o21ai_1
*I *589:Y O *D sky130_fd_sc_hd__nand2_1
*CAP
1 *590:B1 0.000472517
2 *589:Y 0.000472517
3 *590:B1 *592:B 0.000387003
4 *590:B1 *593:A 2.75229e-05
5 *590:B1 *146:8 4.76437e-05
6 *590:B1 *146:10 9.90725e-05
7 *590:B1 *146:14 1.32026e-05
8 *589:A *590:B1 5.05521e-05
9 *592:A *590:B1 0.000156774
10 *623:A *590:B1 0.000111391
11 *627:A *590:B1 2.75229e-05
12 *38:10 *590:B1 0.000163193
*RES
1 *589:Y *590:B1 18.42 
*END

*D_NET *133 0.000901094
*CONN
*I *592:B I *D sky130_fd_sc_hd__or3_1
*I *590:Y O *D sky130_fd_sc_hd__o21ai_1
*CAP
1 *592:B 0.000206308
2 *590:Y 0.000206308
3 *590:B1 *592:B 0.000387003
4 *623:A *592:B 1.32102e-05
5 *627:B *592:B 8.8266e-05
*RES
1 *590:Y *592:B 7.46 
*END

*D_NET *134 0.00109488
*CONN
*I *592:C I *D sky130_fd_sc_hd__or3_1
*I *591:X O *D sky130_fd_sc_hd__o311a_1
*CAP
1 *592:C 0.00029094
2 *591:X 0.00029094
3 *592:C *591:A2 2.38055e-05
4 *592:C *144:69 2.01737e-05
5 *592:C *144:81 0.00026231
6 *588:B *592:C 3.98029e-05
7 *591:C1 *592:C 6.05913e-05
8 *90:92 *592:C 0.000106312
*RES
1 *591:X *592:C 13.8 
*END

*D_NET *135 0.000676429
*CONN
*I *593:A I *D sky130_fd_sc_hd__clkbuf_1
*I *592:X O *D sky130_fd_sc_hd__or3_1
*CAP
1 *593:A 0.000150449
2 *592:X 0.000150449
3 *588:B *593:A 2.34423e-05
4 *590:B1 *593:A 2.75229e-05
5 *592:A *593:A 0.000137571
6 *627:A *593:A 8.23457e-05
7 *45:10 *593:A 9.37731e-05
8 *131:8 *593:A 1.08758e-05
*RES
1 *592:X *593:A 10.425 
*END

*D_NET *136 0.00588897
*CONN
*I *672:D I *D sky130_fd_sc_hd__dfrtp_1
*I *609:Y O *D sky130_fd_sc_hd__a21oi_1
*CAP
1 *672:D 0.00234516
2 *609:Y 0.00234516
3 *672:D *549:A 5.16348e-05
4 *672:D *585:A1 0
5 *672:D *607:A 0
6 *672:D *609:A1 9.5799e-06
7 *672:D *610:A 7.09649e-05
8 *672:D *672:CLK 0.000172845
9 *672:D *699:A 6.85995e-06
10 *672:D *711:A 1.08758e-05
11 *672:D *712:A 1.08056e-05
12 *672:D *146:33 2.63381e-05
13 *672:D *146:59 1.30972e-05
14 *672:D *176:36 0
15 *672:D *177:14 0.000278267
16 *672:D *178:8 0
17 *672:D *178:34 0
18 *554:A *672:D 0.00010467
19 *607:B *672:D 2.8531e-05
20 *626:A *672:D 4.94546e-05
21 *631:A *672:D 1.19928e-05
22 *637:A *672:D 0.000216892
23 *660:D *672:D 7.23602e-05
24 *672:RESET_B *672:D 5.43616e-05
25 *17:108 *672:D 0
26 *90:49 *672:D 9.12663e-06
*RES
1 *609:Y *672:D 31.2048 
*END

*D_NET *137 0.000753172
*CONN
*I *673:D I *D sky130_fd_sc_hd__dfrtp_1
*I *613:X O *D sky130_fd_sc_hd__clkbuf_1
*CAP
1 *673:D 0.000239935
2 *613:X 0.000239935
3 *673:D *659:CLK 0.000214222
4 *673:D *707:A 0
5 *613:A *673:D 3.44698e-05
6 *672:RESET_B *673:D 2.46089e-05
*RES
1 *613:X *673:D 10.845 
*END

*D_NET *138 0.000674598
*CONN
*I *670:D I *D sky130_fd_sc_hd__dfrtp_1
*I *555:Y O *D sky130_fd_sc_hd__nor2_1
*CAP
1 *670:D 0.000267734
2 *555:Y 0.000267734
3 *670:D *671:CLK 0
4 *670:D *671:D 9.5433e-05
5 *555:A *670:D 1.61831e-05
6 *555:B *670:D 2.75145e-05
7 *669:D *670:D 0
8 *17:148 *670:D 0
9 *17:150 *670:D 0
*RES
1 *555:Y *670:D 11.4 
*END

*D_NET *139 0.000232473
*CONN
*I *671:D I *D sky130_fd_sc_hd__dfrtp_1
*I *614:X O *D sky130_fd_sc_hd__a21o_1
*CAP
1 *671:D 2.64233e-05
2 *614:X 2.64233e-05
3 *671:D *671:CLK 1.01661e-05
4 *613:A *671:D 7.4027e-05
5 *670:D *671:D 9.5433e-05
*RES
1 *614:X *671:D 8.325 
*END

*D_NET *140 0.00247625
*CONN
*I *668:D I *D sky130_fd_sc_hd__dfrtp_1
*I *615:Y O *D sky130_fd_sc_hd__o21ai_1
*CAP
1 *668:D 0.000778061
2 *615:Y 0.000778061
3 *668:D *668:CLK 0.000508362
4 *668:D *704:A 4.47209e-05
5 *668:D *142:95 0.000200742
6 *669:D *668:D 0.000166299
*RES
1 *615:Y *668:D 24 
*END

*D_NET *141 0.0038035
*CONN
*I *687:A I *D sky130_fd_sc_hd__clkbuf_16
*I *686:A I *D sky130_fd_sc_hd__clkbuf_16
*I *685:X O *D sky130_fd_sc_hd__clkbuf_16
*CAP
1 *687:A 0.000430377
2 *686:A 0.000411998
3 *685:X 0.000295341
4 *141:8 0.00113772
5 *686:A *571:B 6.63726e-05
6 *686:A *144:87 5.2103e-05
7 *687:A *585:A1 0
8 *572:A *686:A 0.000175596
9 *589:B *141:8 3.64622e-05
10 *590:A2 *686:A 0
11 *604:B1 *686:A 0.000136394
12 *627:C *686:A 9.3062e-06
13 *685:A *687:A 0
14 *44:10 *686:A 0.000320951
15 *59:10 *686:A 7.63125e-05
16 *59:10 *687:A 0.000277601
17 *88:68 *686:A 6.81992e-05
18 *89:12 *686:A 1.23331e-05
19 *90:10 *686:A 0.000131567
20 *98:14 *687:A 0.000164874
21 *128:8 *686:A 0
22 *128:8 *687:A 0
*RES
1 *685:X *141:8 6.81 
2 *141:8 *686:A 14.085 
3 *141:8 *687:A 12.975 
*END

*D_NET *142 0.0166347
*CONN
*I *676:CLK I *D sky130_fd_sc_hd__dfrtp_4
*I *675:CLK I *D sky130_fd_sc_hd__dfrtp_1
*I *681:CLK I *D sky130_fd_sc_hd__dfrtp_1
*I *682:CLK I *D sky130_fd_sc_hd__dfrtp_1
*I *678:CLK I *D sky130_fd_sc_hd__dfrtp_1
*I *683:CLK I *D sky130_fd_sc_hd__dfrtp_1
*I *679:CLK I *D sky130_fd_sc_hd__dfrtp_1
*I *667:CLK I *D sky130_fd_sc_hd__dfrtp_1
*I *674:CLK I *D sky130_fd_sc_hd__dfrtp_4
*I *669:CLK I *D sky130_fd_sc_hd__dfrtp_1
*I *670:CLK I *D sky130_fd_sc_hd__dfrtp_1
*I *668:CLK I *D sky130_fd_sc_hd__dfrtp_1
*I *666:CLK I *D sky130_fd_sc_hd__dfrtp_1
*I *684:CLK I *D sky130_fd_sc_hd__dfrtp_1
*I *680:CLK I *D sky130_fd_sc_hd__dfrtp_1
*I *677:CLK I *D sky130_fd_sc_hd__dfrtp_1
*I *686:X O *D sky130_fd_sc_hd__clkbuf_16
*CAP
1 *676:CLK 0.000512274
2 *675:CLK 8.40036e-05
3 *681:CLK 0.000141328
4 *682:CLK 0
5 *678:CLK 3.55506e-05
6 *683:CLK 4.58368e-05
7 *679:CLK 0
8 *667:CLK 5.88496e-06
9 *674:CLK 0
10 *669:CLK 0
11 *670:CLK 0.000257661
12 *668:CLK 0.000558367
13 *666:CLK 5.66458e-05
14 *684:CLK 0.000100455
15 *680:CLK 0.000306513
16 *677:CLK 0.000175496
17 *686:X 0.000690831
18 *142:170 0.000728633
19 *142:120 4.17271e-05
20 *142:97 0.000300976
21 *142:95 0.000244644
22 *142:76 0.000863123
23 *142:65 0.000265751
24 *142:45 0.000603774
25 *142:37 0.000663835
26 *142:33 0.000961794
27 *142:31 0.00124737
28 *142:29 0.00157686
29 *142:14 0.00115295
30 *142:12 0.000177633
31 *142:10 0.000663291
32 *142:8 0.0012406
33 *668:CLK *704:A 8.65905e-05
34 *676:CLK *146:8 0.000237793
35 *677:CLK *677:D 2.11084e-05
36 *677:CLK *682:D 2.62458e-05
37 *680:CLK *680:D 4.92935e-05
38 *681:CLK *681:D 5.83121e-06
39 *683:CLK *683:D 9.14049e-05
40 *684:CLK *684:D 0.000159259
41 *142:14 *682:D 2.92017e-05
42 *142:29 *682:D 0.000109789
43 *142:33 *679:D 0.00013485
44 *142:65 *704:A 0
45 *142:76 *704:A 0
46 clk_gate_en *142:45 3.17517e-05
47 clk_gate_en *142:65 0
48 clk_gate_en *142:76 0
49 clk_gate_en *142:95 0
50 retention_en *142:65 0
51 *667:D *667:CLK 4.89295e-05
52 *667:D *683:CLK 0.000113797
53 *667:D *142:31 3.81908e-06
54 *667:D *142:33 5.17718e-05
55 *667:D *142:37 4.57056e-05
56 *668:D *668:CLK 0.000508362
57 *668:D *142:95 0.000200742
58 *669:D *670:CLK 0.000481484
59 *669:D *142:97 2.69217e-05
60 *674:RESET_B *142:97 1.32026e-05
61 *676:RESET_B *676:CLK 8.98797e-05
62 *679:RESET_B *142:33 7.95799e-05
63 *680:RESET_B *680:CLK 2.65337e-05
64 *17:166 *680:CLK 2.75229e-05
65 *17:170 *680:CLK 0.000107373
66 *17:170 *684:CLK 9.3305e-05
67 *90:6 *142:8 2.88357e-05
*RES
1 *686:X *142:8 14.055 
2 *142:8 *142:10 6.735 
3 *142:10 *142:12 1.635 
4 *142:12 *142:14 1.38 
5 *142:14 *677:CLK 6.705 
6 *142:14 *142:29 12.11 
7 *142:29 *142:31 7.005 
8 *142:31 *142:33 7.005 
9 *142:33 *142:37 6.245 
10 *142:37 *142:45 5.3 
11 *142:45 *680:CLK 7.24 
12 *142:45 *684:CLK 4.48 
13 *142:37 *142:65 1.635 
14 *142:65 *666:CLK 4.395 
15 *142:65 *142:76 1.635 
16 *142:76 *668:CLK 12.03 
17 *142:76 *142:95 6.44 
18 *142:95 *142:97 0.795 
19 *142:97 *670:CLK 11.825 
20 *142:97 *669:CLK 1.6 
21 *142:95 *674:CLK 1.6 
22 *142:33 *142:120 0.615 
23 *142:120 *667:CLK 2.05 
24 *142:120 *679:CLK 1.6 
25 *142:31 *683:CLK 6.98 
26 *142:29 *678:CLK 2.215 
27 *142:12 *682:CLK 3.6 
28 *142:10 *681:CLK 5.355 
29 *142:8 *142:170 2.145 
30 *142:170 *675:CLK 4.74 
31 *142:170 *676:CLK 13.005 
*END

*D_NET *143 0.0162511
*CONN
*I *665:CLK I *D sky130_fd_sc_hd__dfrtp_1
*I *663:CLK I *D sky130_fd_sc_hd__dfrtp_1
*I *662:CLK I *D sky130_fd_sc_hd__dfrtp_1
*I *673:CLK I *D sky130_fd_sc_hd__dfrtp_1
*I *659:CLK I *D sky130_fd_sc_hd__dfrtp_1
*I *664:CLK I *D sky130_fd_sc_hd__dfrtp_1
*I *661:CLK I *D sky130_fd_sc_hd__dfrtp_1
*I *660:CLK I *D sky130_fd_sc_hd__dfrtp_1
*I *658:CLK I *D sky130_fd_sc_hd__dfrtp_1
*I *672:CLK I *D sky130_fd_sc_hd__dfrtp_1
*I *657:CLK I *D sky130_fd_sc_hd__dfstp_1
*I *671:CLK I *D sky130_fd_sc_hd__dfrtp_1
*I *688:A I *D sky130_fd_sc_hd__bufinv_16
*I *687:X O *D sky130_fd_sc_hd__clkbuf_16
*CAP
1 *665:CLK 0
2 *663:CLK 0
3 *662:CLK 0
4 *673:CLK 0
5 *659:CLK 0.00025651
6 *664:CLK 0
7 *661:CLK 8.18458e-05
8 *660:CLK 0
9 *658:CLK 0.000444857
10 *672:CLK 0.000307355
11 *657:CLK 0
12 *671:CLK 0.000291212
13 *688:A 0
14 *687:X 1.85694e-05
15 *143:118 0.000397083
16 *143:116 0.000570029
17 *143:114 0.000970087
18 *143:101 0.000634953
19 *143:95 0.000363337
20 *143:80 0.00086729
21 *143:33 0.000463973
22 *143:27 0.000480116
23 *143:25 0.00076631
24 *143:16 0.000941531
25 *143:6 0.00115507
26 *658:CLK *176:10 9.52646e-05
27 *658:CLK *176:36 5.8825e-05
28 *659:CLK *707:A 0
29 *672:CLK *176:36 5.23362e-05
30 *672:CLK *177:14 0
31 *143:25 *176:36 2.49909e-05
32 *143:33 *616:A2 8.53113e-06
33 *143:33 *176:36 0.000127373
34 *143:33 *176:38 4.31106e-05
35 *143:101 *539:A 9.29807e-05
36 *143:101 *539:B 4.53798e-05
37 *537:A *143:16 4.82863e-05
38 *550:A *143:33 8.40213e-05
39 *581:B *143:16 8.53113e-06
40 *613:A *659:CLK 3.72673e-05
41 *613:A *671:CLK 0.00037491
42 *616:A1 *671:CLK 0
43 *616:A1 *143:33 2.92496e-05
44 *617:B *143:16 0.000132415
45 *617:B *143:80 1.33285e-05
46 *621:A *143:33 4.60584e-05
47 *630:B *672:CLK 0.000134827
48 *631:A *672:CLK 0.000292477
49 *632:A *672:CLK 5.26654e-05
50 *651:B *143:114 0
51 *653:B *143:114 0.000124311
52 *654:A *143:101 9.12494e-06
53 *654:A *143:114 0.000103473
54 *655:B *143:95 0.00011023
55 *655:B *143:101 0.000177023
56 *655:B *143:114 5.04423e-05
57 *657:SET_B *671:CLK 2.75229e-05
58 *657:SET_B *143:33 5.30673e-05
59 *658:RESET_B *658:CLK 2.40101e-05
60 *660:D *143:25 0.000183656
61 *660:RESET_B *143:25 2.34984e-05
62 *661:D *143:80 9.50342e-06
63 *661:D *143:95 0.000258408
64 *662:D *143:116 6.84173e-05
65 *662:D *143:118 6.97118e-05
66 *662:RESET_B *143:116 2.53494e-05
67 *663:RESET_B *143:114 0.000195674
68 *665:D *143:101 0.000119873
69 *669:D *671:CLK 0.000468238
70 *670:D *671:CLK 0
71 *671:D *671:CLK 1.01661e-05
72 *672:D *672:CLK 0.000172845
73 *672:RESET_B *659:CLK 0
74 *672:RESET_B *672:CLK 6.72833e-06
75 *673:D *659:CLK 0.000214222
76 *673:RESET_B *659:CLK 6.21922e-05
77 *685:A *672:CLK 0
78 *17:37 *143:114 0.000353049
79 *17:49 *143:114 0.000238768
80 *17:49 *143:116 0.00021052
81 *17:59 *143:116 0.00019044
82 *17:61 *659:CLK 3.64998e-06
83 *17:61 *143:118 4.85206e-05
84 *17:96 *143:114 0
85 *17:108 *143:16 0.000219422
86 *17:108 *143:25 0.000196574
87 *17:122 *658:CLK 0.000105508
88 *17:122 *143:25 0.000274602
89 *59:10 *143:16 5.92191e-05
90 *60:8 *672:CLK 0.000136177
91 *87:16 *143:16 1.32843e-05
92 *94:12 *672:CLK 0.000197599
93 *94:12 *143:33 0.000155928
94 *98:14 *143:16 6.55328e-05
95 *125:8 *143:6 9.53428e-06
96 *125:8 *143:80 0.000392136
*RES
1 *687:X *143:6 1.96 
2 *143:6 *143:16 13.87 
3 *143:16 *688:A 1.6 
4 *143:16 *143:25 8.055 
5 *143:25 *143:27 2 
6 *143:27 *143:33 6.665 
7 *143:33 *671:CLK 14.315 
8 *143:33 *657:CLK 1.6 
9 *143:27 *672:CLK 12.435 
10 *143:25 *658:CLK 9.295 
11 *143:25 *660:CLK 1.6 
12 *143:6 *143:80 9.83 
13 *143:80 *661:CLK 4.755 
14 *143:80 *143:95 7.97 
15 *143:95 *143:101 5.285 
16 *143:101 *664:CLK 3.6 
17 *143:101 *143:114 14.255 
18 *143:114 *143:116 9.075 
19 *143:116 *143:118 2.52 
20 *143:118 *659:CLK 10.475 
21 *143:118 *673:CLK 1.6 
22 *143:116 *662:CLK 1.6 
23 *143:114 *663:CLK 1.6 
24 *143:95 *665:CLK 1.6 
*END

*D_NET *144 0.00930094
*CONN
*I *561:A I *D sky130_fd_sc_hd__inv_2
*I *591:A1 I *D sky130_fd_sc_hd__o311a_1
*I *556:A I *D sky130_fd_sc_hd__nand2_1
*I *571:B I *D sky130_fd_sc_hd__nand2_1
*I *543:A I *D sky130_fd_sc_hd__nor2_1
*I *607:A I *D sky130_fd_sc_hd__nor2_1
*I *625:B I *D sky130_fd_sc_hd__nand3_1
*I *606:A1 I *D sky130_fd_sc_hd__o21a_1
*I *674:Q O *D sky130_fd_sc_hd__dfrtp_4
*CAP
1 *561:A 0
2 *591:A1 0
3 *556:A 0
4 *571:B 0.000645651
5 *543:A 0
6 *607:A 0.000346274
7 *625:B 0
8 *606:A1 0.000209109
9 *674:Q 1.4896e-05
10 *144:87 0.000742457
11 *144:81 0.000475355
12 *144:69 0.000785151
13 *144:31 0.00070736
14 *144:12 0.000570195
15 *144:10 0.00046234
16 *144:6 7.06338e-05
17 *606:A1 *564:A 0.000310364
18 *606:A1 *146:59 0
19 *144:69 *591:A2 4.89395e-05
20 *144:81 *556:B 6.04372e-05
21 *144:81 *145:23 0.000121032
22 *543:B *144:87 0.00012179
23 *570:A *571:B 0
24 *571:A *571:B 2.97004e-06
25 *575:A *144:31 0
26 *591:B1 *144:69 6.11215e-05
27 *591:C1 *144:69 4.77807e-05
28 *592:C *144:69 2.01737e-05
29 *592:C *144:81 0.00026231
30 *598:A *144:10 3.50152e-06
31 *598:A *144:69 3.5678e-06
32 *601:B *144:81 5.61709e-05
33 *601:B *144:87 4.66108e-05
34 *603:A1 *144:69 4.66108e-05
35 *603:A2 *144:69 5.84096e-05
36 *603:B1 *144:69 0.00022656
37 *604:A2 *571:B 4.21973e-05
38 *606:A2 *606:A1 0.000496944
39 *607:B *607:A 0.00013455
40 *609:B1 *607:A 8.41384e-05
41 *611:B *571:B 3.43327e-05
42 *612:A *571:B 0.000235857
43 *625:C *607:A 8.52845e-05
44 *626:A *607:A 4.77757e-05
45 *626:B *607:A 2.0851e-06
46 *672:D *607:A 0
47 *686:A *571:B 6.63726e-05
48 *686:A *144:87 5.2103e-05
49 *44:10 *144:69 4.89395e-05
50 *45:10 *571:B 0.000383657
51 *46:10 *607:A 1.14169e-05
52 *88:49 *144:6 4.89295e-05
53 *88:49 *144:10 4.21518e-05
54 *88:49 *144:69 2.49909e-05
55 *88:68 *144:69 0.000290403
56 *89:12 *571:B 0.000136231
57 *89:12 *144:87 9.12494e-06
58 *90:49 *144:31 7.95188e-06
59 *105:14 *606:A1 0.000155056
60 *105:14 *144:31 7.06347e-05
61 *105:36 *607:A 1.77747e-05
62 *105:36 *144:31 0.000231417
63 *117:14 *144:31 2.0851e-06
64 *118:6 *607:A 1.07623e-05
*RES
1 *674:Q *144:6 2.05 
2 *144:6 *144:10 1.155 
3 *144:10 *144:12 2 
4 *144:12 *606:A1 10.08 
5 *144:12 *144:31 5.79 
6 *144:31 *625:B 3.6 
7 *144:31 *607:A 9.7125 
8 *144:10 *144:69 10.02 
9 *144:69 *144:81 11.26 
10 *144:81 *144:87 4.34 
11 *144:87 *543:A 3.6 
12 *144:87 *571:B 17.455 
13 *144:81 *556:A 1.6 
14 *144:69 *591:A1 1.6 
15 *144:6 *561:A 1.6 
*END

*D_NET *145 0.0013494
*CONN
*I *587:A I *D sky130_fd_sc_hd__inv_2
*I *556:B I *D sky130_fd_sc_hd__nand2_1
*I *544:A I *D sky130_fd_sc_hd__clkbuf_2
*I *675:Q O *D sky130_fd_sc_hd__dfrtp_1
*CAP
1 *587:A 0
2 *556:B 3.34206e-05
3 *544:A 0.000122643
4 *675:Q 0.000152774
5 *145:23 0.000180348
6 *145:6 0.000422345
7 *145:6 *676:D 8.81386e-06
8 *588:B *556:B 2.10905e-05
9 *588:B *145:23 7.38695e-05
10 *601:B *556:B 8.35118e-05
11 *605:A *145:6 2.01737e-05
12 *605:B *145:23 4.89395e-05
13 *144:81 *556:B 6.04372e-05
14 *144:81 *145:23 0.000121032
*RES
1 *675:Q *145:6 3.43 
2 *145:6 *544:A 7.49 
3 *145:6 *145:23 3.495 
4 *145:23 *556:B 2.74 
5 *145:23 *587:A 1.6 
*END

*D_NET *146 0.0106287
*CONN
*I *622:B I *D sky130_fd_sc_hd__nand3_1
*I *560:A1 I *D sky130_fd_sc_hd__o21a_1
*I *573:B I *D sky130_fd_sc_hd__nand2_1
*I *564:A I *D sky130_fd_sc_hd__nor2_1
*I *542:A I *D sky130_fd_sc_hd__inv_6
*I *610:A I *D sky130_fd_sc_hd__nor2_1
*I *609:A1 I *D sky130_fd_sc_hd__a21oi_1
*I *601:A I *D sky130_fd_sc_hd__nor2_1
*I *676:Q O *D sky130_fd_sc_hd__dfrtp_4
*CAP
1 *622:B 2.0132e-05
2 *560:A1 0.000266943
3 *573:B 0.000106251
4 *564:A 0.000305115
5 *542:A 0
6 *610:A 8.56861e-05
7 *609:A1 8.10887e-06
8 *601:A 0
9 *676:Q 0.00075609
10 *146:59 0.000712518
11 *146:33 0.000197349
12 *146:29 0.00111211
13 *146:16 0.000670683
14 *146:14 0.000430508
15 *146:10 0.000824038
16 *146:8 0.00107859
17 *543:B *560:A1 2.31442e-05
18 *560:B1 *560:A1 0.000260034
19 *564:B *564:A 0.000241281
20 *567:A *564:A 4.10542e-05
21 *570:A *609:A1 1.96856e-05
22 *570:A *610:A 0.000136658
23 *572:B *146:16 0
24 *575:A *146:59 8.24814e-05
25 *590:A1 *573:B 0.000199021
26 *590:A1 *146:14 1.08758e-05
27 *590:A2 *146:14 2.19562e-06
28 *590:B1 *146:8 4.76437e-05
29 *590:B1 *146:10 9.90725e-05
30 *590:B1 *146:14 1.32026e-05
31 *591:A3 *560:A1 2.79799e-05
32 *591:C1 *560:A1 0.000199811
33 *592:A *146:10 6.23512e-05
34 *600:A *560:A1 4.43871e-06
35 *600:B *560:A1 3.00381e-05
36 *604:B1 *573:B 2.15337e-05
37 *606:A1 *564:A 0.000310364
38 *606:A1 *146:59 0
39 *606:A2 *564:A 6.48713e-05
40 *607:B *146:59 0.000111604
41 *622:C *146:10 4.77807e-05
42 *623:A *146:14 0.000265768
43 *627:C *573:B 0.000117265
44 *672:D *609:A1 9.5799e-06
45 *672:D *610:A 7.09649e-05
46 *672:D *146:33 2.63381e-05
47 *672:D *146:59 1.30972e-05
48 *676:CLK *146:8 0.000237793
49 *676:RESET_B *146:8 0.000154632
50 *44:10 *573:B 2.85623e-05
51 *44:10 *146:16 0.000111087
52 *47:10 *610:A 2.49909e-05
53 *90:49 *609:A1 9.09788e-06
54 *90:49 *146:29 0.000400045
55 *90:49 *146:33 0.000166196
56 *90:92 *560:A1 0.000249996
57 *101:33 *560:A1 6.04287e-05
58 *103:17 *560:A1 2.41369e-05
59 *112:19 *560:A1 2.75229e-05
*RES
1 *676:Q *146:8 11.38 
2 *146:8 *146:10 3.9 
3 *146:10 *146:14 5.21 
4 *146:14 *146:16 1.38 
5 *146:16 *601:A 3.6 
6 *146:16 *146:29 1.64507 
7 *146:29 *146:33 0.771067 
8 *146:33 *609:A1 3.8325 
9 *146:33 *610:A 5.8125 
10 *146:29 *146:59 9.1075 
11 *146:59 *542:A 1.6 
12 *146:59 *564:A 8.74 
13 *146:14 *573:B 6.495 
14 *146:10 *560:A1 13.805 
15 *146:8 *622:B 1.96 
*END

*D_NET *147 0.000474367
*CONN
*I *576:B I *D sky130_fd_sc_hd__nand2_1
*I *692:X O *D sky130_fd_sc_hd__clkbuf_1
*CAP
1 *576:B 0.000136432
2 *692:X 0.000136432
3 *576:B *576:A 0.000201503
*RES
1 *692:X *576:B 5.99 
*END

*D_NET *148 0.00374018
*CONN
*I *711:A I *D sky130_fd_sc_hd__clkbuf_1
*I *618:Y O *D sky130_fd_sc_hd__a211oi_1
*CAP
1 *711:A 0.0011462
2 *618:Y 0.0011462
3 *711:A *551:A 0
4 *711:A *699:A 3.62258e-06
5 *711:A *179:14 0
6 *537:B *711:A 0
7 *577:A2 *711:A 6.14689e-05
8 *617:B *711:A 5.4155e-06
9 *618:A1 *711:A 2.75229e-05
10 *618:B1 *711:A 3.61284e-05
11 *640:B *711:A 0.000153681
12 *641:A *711:A 0.000195465
13 *661:D *711:A 0.000157401
14 *672:D *711:A 1.08758e-05
15 *17:96 *711:A 0.000151929
16 *17:108 *711:A 0.000105849
17 *59:10 *711:A 0
18 *59:14 *711:A 1.07593e-05
19 *59:89 *711:A 2.86691e-05
20 *59:102 *711:A 5.49399e-05
21 *85:12 *711:A 8.37253e-05
22 *86:10 *711:A 1.14559e-05
23 *86:12 *711:A 6.15341e-05
24 *124:10 *711:A 0.000287337
*RES
1 *618:Y *711:A 29.91 
*END

*D_NET *149 0.00116658
*CONN
*I *700:A I *D sky130_fd_sc_hd__buf_4
*I *667:Q O *D sky130_fd_sc_hd__dfrtp_1
*CAP
1 *700:A 0.000274196
2 *667:Q 0.000274196
3 clk_gate_en *700:A 0
4 pwr_gate_en *700:A 4.12979e-05
5 *667:RESET_B *700:A 8.8266e-05
6 *17:156 *700:A 0.000140912
7 *17:158 *700:A 0.000253949
8 *17:160 *700:A 9.37644e-05
*RES
1 *667:Q *700:A 13.455 
*END

*D_NET *150 0.000349531
*CONN
*I *701:A I *D sky130_fd_sc_hd__clkbuf_2
*I *672:Q O *D sky130_fd_sc_hd__dfrtp_1
*CAP
1 *701:A 0.000174765
2 *672:Q 0.000174765
3 pwr_state[0] *701:A 0
*RES
1 *672:Q *701:A 9.63 
*END

*D_NET *151 0.000299825
*CONN
*I *702:A I *D sky130_fd_sc_hd__clkbuf_2
*I *673:Q O *D sky130_fd_sc_hd__dfrtp_1
*CAP
1 *702:A 0.000149912
2 *673:Q 0.000149912
*RES
1 *673:Q *702:A 9.12 
*END

*D_NET *152 0.000174185
*CONN
*I *703:A I *D sky130_fd_sc_hd__buf_2
*I *671:Q O *D sky130_fd_sc_hd__dfrtp_1
*CAP
1 *703:A 8.70924e-05
2 *671:Q 8.70924e-05
3 reset_ctrl *703:A 0
*RES
1 *671:Q *703:A 8.58 
*END

*D_NET *153 0.000760616
*CONN
*I *704:A I *D sky130_fd_sc_hd__buf_4
*I *668:Q O *D sky130_fd_sc_hd__dfrtp_1
*CAP
1 *704:A 0.000314652
2 *668:Q 0.000314652
3 *668:CLK *704:A 8.65905e-05
4 *668:D *704:A 4.47209e-05
5 *142:65 *704:A 0
6 *142:76 *704:A 0
*RES
1 *668:Q *704:A 11.355 
*END

*D_NET *154 0.000168538
*CONN
*I *705:A I *D sky130_fd_sc_hd__buf_2
*I *670:Q O *D sky130_fd_sc_hd__dfrtp_1
*CAP
1 *705:A 8.42688e-05
2 *670:Q 8.42688e-05
*RES
1 *670:Q *705:A 8.58 
*END

*D_NET *155 0.000180115
*CONN
*I *706:A I *D sky130_fd_sc_hd__buf_2
*I *669:Q O *D sky130_fd_sc_hd__dfrtp_1
*CAP
1 *706:A 7.05892e-05
2 *669:Q 7.05892e-05
3 retention_save *706:A 3.89366e-05
*RES
1 *669:Q *706:A 8.58 
*END

*D_NET *156 0.0015246
*CONN
*I *712:A I *D sky130_fd_sc_hd__buf_1
*I *558:Y O *D sky130_fd_sc_hd__nor2_1
*CAP
1 *712:A 0.000461301
2 *558:Y 0.000461301
3 *712:A *549:A 8.12896e-06
4 *712:A *616:A2 0
5 *712:A *159:10 8.58181e-05
6 *550:A *712:A 5.3844e-05
7 *550:B *712:A 1.08758e-05
8 *554:A *712:A 0.000283043
9 *570:B *712:A 6.98693e-05
10 *571:A *712:A 4.1652e-06
11 *608:A *712:A 0
12 *616:A1 *712:A 0
13 *616:B1 *712:A 6.13386e-05
14 *672:D *712:A 1.08056e-05
15 *96:8 *712:A 1.41095e-05
*RES
1 *558:Y *712:A 15.99 
*END

*D_NET *157 0.00350675
*CONN
*I *699:A I *D sky130_fd_sc_hd__clkbuf_2
*I *711:X O *D sky130_fd_sc_hd__clkbuf_1
*CAP
1 *699:A 0.00117664
2 *711:X 0.00117664
3 *699:A *707:A 0.00054624
4 *699:A *177:14 0.000239726
5 seq_busy *699:A 0.00012657
6 *659:RESET_B *699:A 0
7 *672:D *699:A 6.85995e-06
8 *711:A *699:A 3.62258e-06
9 *59:47 *699:A 0.000230444
*RES
1 *711:X *699:A 28.185 
*END

*D_NET *158 0.00294023
*CONN
*I *576:A I *D sky130_fd_sc_hd__nand2_1
*I *693:X O *D sky130_fd_sc_hd__clkbuf_1
*CAP
1 *576:A 0.0013559
2 *693:X 0.0013559
3 *576:B *576:A 0.000201503
4 *692:A *576:A 2.69174e-05
*RES
1 *693:X *576:A 30.27 
*END

*D_NET *159 0.00775268
*CONN
*I *707:A I *D sky130_fd_sc_hd__clkbuf_2
*I *643:A I *D sky130_fd_sc_hd__nand3_1
*I *620:A I *D sky130_fd_sc_hd__nand2_1
*I *619:B I *D sky130_fd_sc_hd__or2_1
*I *712:X O *D sky130_fd_sc_hd__buf_1
*CAP
1 *707:A 0.000392791
2 *643:A 0.00113715
3 *620:A 9.26577e-05
4 *619:B 0
5 *712:X 0.000136655
6 *159:44 0.00172343
7 *159:31 0.000743978
8 *159:10 0.000594486
9 *643:A *180:12 5.31158e-06
10 *159:10 *616:A2 4.58406e-05
11 *159:10 *176:38 5.53249e-06
12 *159:31 *536:B 1.03323e-05
13 *159:31 *176:36 3.67779e-05
14 *159:31 *176:38 2.23407e-05
15 *550:A *159:10 9.43764e-06
16 *613:A *159:31 0
17 *613:A *159:44 0.000124516
18 *621:A *159:31 0.000137422
19 *621:B *620:A 0
20 *628:A *620:A 1.61831e-05
21 *628:B *620:A 0
22 *629:B *159:31 8.65961e-05
23 *630:A *159:31 1.0183e-05
24 *630:A *159:44 6.36679e-05
25 *630:B *159:31 2.14129e-05
26 *631:B *159:44 7.25617e-05
27 *642:B *643:A 4.69705e-05
28 *659:CLK *707:A 0
29 *672:RESET_B *707:A 0.000236803
30 *672:RESET_B *159:44 0.000199308
31 *673:D *707:A 0
32 *685:A *707:A 1.82476e-05
33 *685:A *159:44 8.43085e-05
34 *699:A *707:A 0.00054624
35 *712:A *159:10 8.58181e-05
36 *17:122 *159:31 0.000191335
37 *52:6 *620:A 4.99619e-05
38 *52:6 *159:31 7.49327e-05
39 *59:35 *643:A 0.000136809
40 *59:47 *707:A 8.6099e-05
41 *59:55 *643:A 4.71087e-05
42 *59:55 *707:A 0.000161305
43 *59:55 *159:44 2.75092e-05
44 *94:12 *159:31 0.000270653
*RES
1 *712:X *159:10 5.61 
2 *159:10 *619:B 3.6 
3 *159:10 *159:31 14.46 
4 *159:31 *620:A 3.01 
5 *159:31 *159:44 8.225 
6 *159:44 *643:A 21.07 
7 *159:44 *707:A 14.25 
*END

*D_NET *160 0.000418943
*CONN
*I *694:A I *D sky130_fd_sc_hd__clkbuf_1
*I *689:X O *D sky130_fd_sc_hd__dlygate4sd3_1
*CAP
1 *694:A 0.000209472
2 *689:X 0.000209472
3 *689:A *694:A 0
*RES
1 *689:X *694:A 9.975 
*END

*D_NET *161 0.000153662
*CONN
*I *695:A I *D sky130_fd_sc_hd__clkbuf_1
*I *690:X O *D sky130_fd_sc_hd__dlygate4sd3_1
*CAP
1 *695:A 6.62768e-05
2 *690:X 6.62768e-05
3 *695:A *678:D 2.11084e-05
*RES
1 *690:X *695:A 4.34 
*END

*D_NET *162 0.000288579
*CONN
*I *696:A I *D sky130_fd_sc_hd__clkbuf_1
*I *691:X O *D sky130_fd_sc_hd__dlygate4sd3_1
*CAP
1 *696:A 0.00014429
2 *691:X 0.00014429
*RES
1 *691:X *696:A 5.375 
*END

*D_NET *163 0.000333491
*CONN
*I *680:D I *D sky130_fd_sc_hd__dfrtp_1
*I *694:X O *D sky130_fd_sc_hd__clkbuf_1
*CAP
1 *680:D 0.000142099
2 *694:X 0.000142099
3 *680:CLK *680:D 4.92935e-05
4 *17:170 *680:D 0
*RES
1 *694:X *680:D 5.045 
*END

*D_NET *164 0.000453925
*CONN
*I *678:D I *D sky130_fd_sc_hd__dfrtp_1
*I *695:X O *D sky130_fd_sc_hd__clkbuf_1
*CAP
1 *678:D 0.000216409
2 *695:X 0.000216409
3 *677:RESET_B *678:D 0
4 *695:A *678:D 2.11084e-05
*RES
1 *695:X *678:D 10.065 
*END

*D_NET *165 0.00112676
*CONN
*I *679:D I *D sky130_fd_sc_hd__dfrtp_1
*I *696:X O *D sky130_fd_sc_hd__clkbuf_1
*CAP
1 *679:D 0.000295431
2 *696:X 0.000295431
3 *679:D *562:A 0.000112303
4 *667:D *679:D 0.000243243
5 *679:RESET_B *679:D 4.5506e-05
6 *17:184 *679:D 0
7 *142:33 *679:D 0.00013485
*RES
1 *696:X *679:D 14.205 
*END

*D_NET *166 0.00354353
*CONN
*I *582:A I *D sky130_fd_sc_hd__inv_2
*I *697:X O *D sky130_fd_sc_hd__buf_1
*CAP
1 *582:A 0.00176591
2 *697:X 0.00176591
3 *697:A *582:A 1.17114e-05
*RES
1 *697:X *582:A 35.04 
*END

*D_NET *167 0.00150118
*CONN
*I *677:D I *D sky130_fd_sc_hd__dfrtp_1
*I *698:X O *D sky130_fd_sc_hd__clkbuf_1
*CAP
1 *677:D 0.000726276
2 *698:X 0.000726276
3 *677:CLK *677:D 2.11084e-05
4 *698:A *677:D 2.75229e-05
*RES
1 *698:X *677:D 11.255 
*END

*D_NET *168 0.000473945
*CONN
*I *708:A I *D sky130_fd_sc_hd__buf_4
*I *666:Q O *D sky130_fd_sc_hd__dfrtp_1
*CAP
1 *708:A 0.000236973
2 *666:Q 0.000236973
3 *17:156 *708:A 0
4 *17:158 *708:A 0
*RES
1 *666:Q *708:A 10.62 
*END

*D_NET *169 0.000561206
*CONN
*I *709:A I *D sky130_fd_sc_hd__clkbuf_2
*I *657:Q O *D sky130_fd_sc_hd__dfstp_1
*CAP
1 *709:A 0.000280603
2 *657:Q 0.000280603
3 dvfs_ctrl[1] *709:A 0
4 *658:D *709:A 0
*RES
1 *657:Q *709:A 11.4975 
*END

*D_NET *170 0.000647296
*CONN
*I *674:D I *D sky130_fd_sc_hd__dfrtp_4
*I *575:Y O *D sky130_fd_sc_hd__inv_2
*CAP
1 *674:D 0.000281566
2 *575:Y 0.000281566
3 *674:RESET_B *674:D 8.41639e-05
*RES
1 *575:Y *674:D 11.7 
*END

*D_NET *171 0.00145993
*CONN
*I *675:D I *D sky130_fd_sc_hd__dfrtp_1
*I *593:X O *D sky130_fd_sc_hd__clkbuf_1
*CAP
1 *675:D 0.000729963
2 *593:X 0.000729963
*RES
1 *593:X *675:D 16.095 
*END

*D_NET *172 0.000743099
*CONN
*I *676:D I *D sky130_fd_sc_hd__dfrtp_4
*I *605:Y O *D sky130_fd_sc_hd__nand2_1
*CAP
1 *676:D 0.000308405
2 *605:Y 0.000308405
3 *605:A *676:D 2.69153e-05
4 *676:RESET_B *676:D 9.05592e-05
5 *145:6 *676:D 8.81386e-06
*RES
1 *605:Y *676:D 11.19 
*END

*D_NET *173 0.000692721
*CONN
*I *562:A I *D sky130_fd_sc_hd__inv_2
*I *684:Q O *D sky130_fd_sc_hd__dfrtp_1
*CAP
1 *562:A 0.000276981
2 *684:Q 0.000276981
3 *679:D *562:A 0.000112303
4 *17:196 *562:A 2.64559e-05
*RES
1 *684:Q *562:A 11.52 
*END

*D_NET *174 0.00205769
*CONN
*I *559:A I *D sky130_fd_sc_hd__inv_2
*I *602:C I *D sky130_fd_sc_hd__nand3_1
*I *682:Q O *D sky130_fd_sc_hd__dfrtp_1
*CAP
1 *559:A 0
2 *602:C 0.000388161
3 *682:Q 0.000342018
4 *174:12 0.000730179
5 *174:12 *565:A 3.00381e-05
6 *563:A *602:C 0
7 *566:A *602:C 2.11084e-05
8 *566:C *602:C 5.05437e-05
9 *599:A *602:C 0.000174409
10 *17:200 *174:12 0.000130296
11 *17:213 *174:12 2.77283e-05
12 *109:12 *174:12 0.000163204
*RES
1 *682:Q *174:12 12.08 
2 *174:12 *602:C 7.885 
3 *174:12 *559:A 1.6 
*END

*D_NET *175 0.000118089
*CONN
*I *565:A I *D sky130_fd_sc_hd__inv_2
*I *683:Q O *D sky130_fd_sc_hd__dfrtp_1
*CAP
1 *565:A 2.90062e-05
2 *683:Q 2.90062e-05
3 *17:200 *565:A 3.00381e-05
4 *174:12 *565:A 3.00381e-05
*RES
1 *683:Q *565:A 4.01 
*END

*D_NET *176 0.0036287
*CONN
*I *549:A I *D sky130_fd_sc_hd__inv_2
*I *619:A I *D sky130_fd_sc_hd__or2_1
*I *616:A2 I *D sky130_fd_sc_hd__o211a_1
*I *620:B I *D sky130_fd_sc_hd__nand2_1
*I *536:B I *D sky130_fd_sc_hd__nand2_1
*I *658:Q O *D sky130_fd_sc_hd__dfrtp_1
*CAP
1 *549:A 0.00026976
2 *619:A 0
3 *616:A2 0.000140036
4 *620:B 2.11722e-05
5 *536:B 0.000311914
6 *658:Q 0
7 *176:38 0.000156959
8 *176:36 0.000503359
9 *176:10 0.000488103
10 *176:4 0.000371693
11 *550:A *549:A 0.000233568
12 *613:A *620:B 1.73877e-05
13 *613:A *176:10 3.89528e-05
14 *616:A1 *616:A2 0.000150848
15 *616:B1 *616:A2 9.13949e-06
16 *621:A *620:B 1.94892e-05
17 *621:A *176:10 3.47837e-05
18 *628:A *536:B 8.65961e-05
19 *629:B *536:B 2.8185e-05
20 *658:CLK *176:10 9.52646e-05
21 *658:CLK *176:36 5.8825e-05
22 *672:CLK *176:36 5.23362e-05
23 *672:D *549:A 5.16348e-05
24 *672:D *176:36 0
25 *712:A *549:A 8.12896e-06
26 *712:A *616:A2 0
27 *94:8 *536:B 7.04462e-05
28 *96:8 *549:A 8.52845e-05
29 *143:25 *176:36 2.49909e-05
30 *143:33 *616:A2 8.53113e-06
31 *143:33 *176:36 0.000127373
32 *143:33 *176:38 4.31106e-05
33 *159:10 *616:A2 4.58406e-05
34 *159:10 *176:38 5.53249e-06
35 *159:31 *536:B 1.03323e-05
36 *159:31 *176:36 3.67779e-05
37 *159:31 *176:38 2.23407e-05
*RES
1 *658:Q *176:4 1.6 
2 *176:4 *176:10 4.61 
3 *176:10 *536:B 8.46 
4 *176:10 *620:B 4.215 
5 *176:4 *176:36 5.63 
6 *176:36 *176:38 0.615 
7 *176:38 *616:A2 6.9 
8 *176:38 *619:A 3.6 
9 *176:36 *549:A 11.425 
*END

*D_NET *177 0.00179998
*CONN
*I *548:A I *D sky130_fd_sc_hd__inv_2
*I *536:A I *D sky130_fd_sc_hd__nand2_1
*I *659:Q O *D sky130_fd_sc_hd__dfrtp_1
*CAP
1 *548:A 0
2 *536:A 2.18346e-05
3 *659:Q 0.000560656
4 *177:14 0.000582491
5 *631:A *177:14 0
6 *645:A *177:14 2.02993e-05
7 *672:CLK *177:14 0
8 *672:D *177:14 0.000278267
9 *699:A *177:14 0.000239726
10 *60:8 *177:14 0
11 *82:12 *536:A 4.89295e-05
12 *82:12 *177:14 4.77719e-05
*RES
1 *659:Q *177:14 15.38 
2 *177:14 *536:A 2.05 
3 *177:14 *548:A 1.6 
*END

*D_NET *178 0.00216586
*CONN
*I *535:B I *D sky130_fd_sc_hd__nor2_1
*I *579:B I *D sky130_fd_sc_hd__nand2_1
*I *633:A I *D sky130_fd_sc_hd__inv_2
*I *553:A I *D sky130_fd_sc_hd__or3_1
*I *585:A1 I *D sky130_fd_sc_hd__a21oi_1
*I *660:Q O *D sky130_fd_sc_hd__dfrtp_1
*CAP
1 *535:B 7.86119e-05
2 *579:B 5.12365e-06
3 *633:A 0
4 *553:A 0
5 *585:A1 0.000161532
6 *660:Q 0
7 *178:45 0.000141009
8 *178:34 0.000242789
9 *178:8 0.000241639
10 *178:6 0.000265623
11 *535:B *535:A 7.54921e-06
12 *535:B *579:A 6.60936e-05
13 *579:B *579:A 2.04502e-06
14 *553:C *585:A1 1.07157e-05
15 *553:C *178:8 2.78196e-05
16 *637:B *178:34 4.77757e-05
17 *637:B *178:45 0.000303692
18 *660:D *178:34 0
19 *672:D *585:A1 0
20 *672:D *178:8 0
21 *672:D *178:34 0
22 *687:A *585:A1 0
23 *17:108 *178:34 3.69171e-05
24 *82:12 *535:B 0.000148118
25 *82:12 *178:34 4.77757e-05
26 *82:12 *178:45 0.00033103
*RES
1 *660:Q *178:6 3.6 
2 *178:6 *178:8 1.38 
3 *178:8 *585:A1 6.06 
4 *178:8 *553:A 3.6 
5 *178:6 *178:34 5.36 
6 *178:34 *633:A 1.6 
7 *178:34 *178:45 3.4425 
8 *178:45 *579:B 1.855 
9 *178:45 *535:B 4.675 
*END

*D_NET *179 0.00108063
*CONN
*I *551:A I *D sky130_fd_sc_hd__inv_2
*I *535:A I *D sky130_fd_sc_hd__nor2_1
*I *579:A I *D sky130_fd_sc_hd__nand2_1
*I *661:Q O *D sky130_fd_sc_hd__dfrtp_1
*CAP
1 *551:A 7.34248e-05
2 *535:A 1.12694e-05
3 *579:A 9.64134e-05
4 *661:Q 7.16667e-05
5 *179:14 0.000233727
6 *179:8 0.000271136
7 *535:B *535:A 7.54921e-06
8 *535:B *579:A 6.60936e-05
9 *537:B *179:14 3.09233e-05
10 *579:B *579:A 2.04502e-06
11 *580:B *179:14 5.31136e-05
12 *711:A *551:A 0
13 *711:A *179:14 0
14 *59:10 *551:A 3.53984e-05
15 *59:10 *179:14 1.08764e-05
16 *82:12 *535:A 3.21081e-06
17 *82:12 *579:A 7.68414e-06
18 *82:12 *179:14 2.81759e-05
19 *84:12 *551:A 9.12494e-06
20 *123:8 *579:A 4.82919e-05
21 *123:8 *179:14 2.05056e-05
*RES
1 *661:Q *179:8 4.395 
2 *179:8 *179:14 4.355 
3 *179:14 *579:A 3.8875 
4 *179:14 *535:A 1.96 
5 *179:8 *551:A 4.98 
*END

*D_NET *180 0.00170522
*CONN
*I *538:B I *D sky130_fd_sc_hd__nor2_1
*I *643:B I *D sky130_fd_sc_hd__nand3_1
*I *642:A_N I *D sky130_fd_sc_hd__nand2b_1
*I *662:Q O *D sky130_fd_sc_hd__dfrtp_1
*CAP
1 *538:B 0.000203123
2 *643:B 0
3 *642:A_N 0
4 *662:Q 0.000271749
5 *180:21 0.000273643
6 *180:12 0.000342269
7 *642:B *180:12 8.33066e-06
8 *643:A *180:12 5.31158e-06
9 *643:C *538:B 4.66108e-05
10 *644:B *180:21 8.53011e-05
11 *17:49 *180:12 0.000276548
12 *59:35 *180:12 1.79103e-05
13 *71:21 *538:B 8.41384e-05
14 *71:21 *180:21 3.63576e-05
15 *74:14 *538:B 2.17489e-05
16 *74:25 *538:B 3.21772e-05
*RES
1 *662:Q *180:12 9.5 
2 *180:12 *642:A_N 1.6 
3 *180:12 *180:21 1.5 
4 *180:21 *643:B 1.6 
5 *180:21 *538:B 5.17 
*END

*D_NET *181 0.000534923
*CONN
*I *646:A I *D sky130_fd_sc_hd__inv_2
*I *538:A I *D sky130_fd_sc_hd__nor2_1
*I *663:Q O *D sky130_fd_sc_hd__dfrtp_1
*CAP
1 *646:A 0
2 *538:A 5.1939e-05
3 *663:Q 0.000132014
4 *181:12 0.000183953
5 *663:RESET_B *181:12 5.05521e-05
6 *17:96 *181:12 4.34149e-05
7 *74:25 *538:A 7.30505e-05
*RES
1 *663:Q *181:12 7.775 
2 *181:12 *538:A 2.74 
3 *181:12 *646:A 1.6 
*END

*D_NET *182 0.00238509
*CONN
*I *651:A I *D sky130_fd_sc_hd__or2_1
*I *539:A I *D sky130_fd_sc_hd__nor2_1
*I *652:B I *D sky130_fd_sc_hd__nand2_1
*I *664:Q O *D sky130_fd_sc_hd__dfrtp_1
*CAP
1 *651:A 9.05994e-05
2 *539:A 0.00010262
3 *652:B 5.30376e-05
4 *664:Q 0.000403641
5 *182:10 0.000317958
6 *182:6 0.00065654
7 *654:A *539:A 2.98587e-05
8 *654:B *539:A 0.000134847
9 *655:B *539:A 7.28465e-06
10 *656:A *539:A 5.31158e-06
11 *664:D *652:B 5.83121e-06
12 *664:D *182:10 0.000103635
13 *664:RESET_B *182:6 0.000118246
14 *665:D *539:A 2.69153e-05
15 *74:25 *652:B 3.5678e-06
16 *78:8 *652:B 8.52972e-05
17 *78:8 *182:10 0.000118081
18 *85:12 *539:A 2.88357e-05
19 *143:101 *539:A 9.29807e-05
*RES
1 *664:Q *182:6 6.19 
2 *182:6 *182:10 3.225 
3 *182:10 *652:B 2.755 
4 *182:10 *539:A 8.705 
5 *182:6 *651:A 6.725 
*END

*D_NET *183 0.00178422
*CONN
*I *655:A I *D sky130_fd_sc_hd__xor2_1
*I *539:B I *D sky130_fd_sc_hd__nor2_1
*I *665:Q O *D sky130_fd_sc_hd__dfrtp_1
*CAP
1 *655:A 8.76199e-05
2 *539:B 0.000267567
3 *665:Q 0.000465256
4 *183:6 0.000820443
5 *665:D *539:B 5.47309e-05
6 *665:RESET_B *183:6 4.32278e-05
7 *143:101 *539:B 4.53798e-05
*RES
1 *665:Q *183:6 6.88 
2 *183:6 *539:B 5.08 
3 *183:6 *655:A 6.98 
*END

*D_NET *184 0.00186342
*CONN
*I *681:D I *D sky130_fd_sc_hd__dfrtp_1
*I *677:Q O *D sky130_fd_sc_hd__dfrtp_1
*CAP
1 *681:D 0.000922609
2 *677:Q 0.000922609
3 *681:D *682:D 0
4 *677:RESET_B *681:D 1.23706e-05
5 *681:CLK *681:D 5.83121e-06
6 *17:227 *681:D 0
*RES
1 *677:Q *681:D 19.77 
*END

*D_NET *185 0.000638315
*CONN
*I *682:D I *D sky130_fd_sc_hd__dfrtp_1
*I *678:Q O *D sky130_fd_sc_hd__dfrtp_1
*CAP
1 *682:D 0.000236539
2 *678:Q 0.000236539
3 *677:CLK *682:D 2.62458e-05
4 *681:D *682:D 0
5 *142:14 *682:D 2.92017e-05
6 *142:29 *682:D 0.000109789
*RES
1 *678:Q *682:D 11.61 
*END

*D_NET *186 0.000609591
*CONN
*I *683:D I *D sky130_fd_sc_hd__dfrtp_1
*I *679:Q O *D sky130_fd_sc_hd__dfrtp_1
*CAP
1 *683:D 0.000160296
2 *679:Q 0.000160296
3 *667:D *683:D 3.95269e-05
4 *683:CLK *683:D 9.14049e-05
5 *17:196 *683:D 0.000158066
*RES
1 *679:Q *683:D 10.575 
*END

*D_NET *187 0.000532962
*CONN
*I *684:D I *D sky130_fd_sc_hd__dfrtp_1
*I *680:Q O *D sky130_fd_sc_hd__dfrtp_1
*CAP
1 *684:D 0.000166754
2 *680:Q 0.000166754
3 *684:CLK *684:D 0.000159259
4 *17:170 *684:D 4.01948e-05
*RES
1 *680:Q *684:D 6.095 
*END

*D_NET *188 0.00135806
*CONN
*I *591:A2 I *D sky130_fd_sc_hd__o311a_1
*I *568:A I *D sky130_fd_sc_hd__inv_2
*I *681:Q O *D sky130_fd_sc_hd__dfrtp_1
*CAP
1 *591:A2 0.000222425
2 *568:A 3.18738e-05
3 *681:Q 0.000331704
4 *188:12 0.000586003
5 *592:C *591:A2 2.38055e-05
6 *603:B1 *591:A2 4.77769e-05
7 *17:237 *591:A2 0
8 *17:237 *188:12 6.55328e-05
9 *103:17 *591:A2 0
10 *144:69 *591:A2 4.89395e-05
*RES
1 *681:Q *188:12 10.88 
2 *188:12 *568:A 2.05 
3 *188:12 *591:A2 9.32 
*END
