*SPEF "ieee 1481-1999"
*DESIGN "pmu_fsm"
*DATE "03:02:32 Tuesday October 14, 2025"
*VENDOR "The OpenROAD Project"
*PROGRAM "OpenROAD"
*VERSION "b16bda7e82721d10566ff7e2b68f1ff0be9f9e38"
*DESIGN_FLOW "NAME_SCOPE LOCAL" "PIN_CAP NONE"
*DIVIDER /
*DELIMITER :
*BUS_DELIMITER []
*T_UNIT 1 NS
*C_UNIT 1 PF
*R_UNIT 1 OHM
*L_UNIT 1 HENRY

*NAME_MAP
*3 clk
*4 clk_gate_en
*5 clk_stable
*6 net21
*7 dvfs_ctrl[1]
*8 error
*9 pwr_gate_en
*10 pwr_stable
*11 pwr_state[0]
*12 pwr_state[1]
*13 req_idle
*14 req_off
*15 req_sleep
*16 reset_ctrl
*17 reset_n
*18 retention_en
*19 retention_ready
*20 retention_restore
*21 retention_save
*22 seq_busy
*23 wake_up
*24 _000_
*25 _001_
*26 _002_
*27 _003_
*28 _004_
*29 _005_
*30 _006_
*31 _007_
*32 _008_
*33 _009_
*34 _010_
*35 _011_
*36 _012_
*37 _013_
*38 _014_
*39 _015_
*40 _016_
*41 _017_
*42 _018_
*43 _019_
*44 _020_
*45 _021_
*46 _022_
*47 _023_
*48 _024_
*49 _025_
*50 _026_
*51 _027_
*52 _028_
*53 _029_
*54 _030_
*55 _031_
*56 _032_
*57 _033_
*58 _034_
*59 _035_
*60 _036_
*61 _037_
*62 _038_
*63 _039_
*64 _040_
*65 _041_
*66 _042_
*67 _043_
*68 _044_
*69 _045_
*70 _046_
*71 _047_
*72 _048_
*73 _049_
*74 _050_
*75 _051_
*76 _052_
*77 _053_
*78 _054_
*79 _055_
*80 _056_
*81 _057_
*82 _058_
*83 _059_
*84 _060_
*85 _061_
*86 _062_
*87 _063_
*88 _064_
*89 _065_
*90 _066_
*91 _067_
*92 _068_
*93 _069_
*94 _070_
*95 _071_
*96 _072_
*97 _073_
*98 _074_
*99 _075_
*100 _076_
*101 _077_
*102 _078_
*103 _079_
*104 _080_
*105 _081_
*106 _082_
*107 _083_
*108 _084_
*109 _085_
*110 _086_
*111 _087_
*112 _088_
*113 _089_
*114 _090_
*115 _091_
*116 _092_
*117 _093_
*118 _094_
*119 _095_
*120 _096_
*121 _097_
*122 _098_
*123 _099_
*124 _100_
*125 _101_
*126 _102_
*127 _103_
*128 _104_
*129 _105_
*130 _106_
*131 _107_
*132 _108_
*133 _109_
*134 _110_
*135 _111_
*136 _112_
*137 _113_
*138 _114_
*139 _115_
*140 _116_
*141 clknet_0_clk
*142 clknet_1_0__leaf_clk
*143 clknet_1_1__leaf_clk
*144 curr_state\[0\]
*145 curr_state\[1\]
*146 curr_state\[2\]
*147 net1
*148 net10
*149 net11
*150 net12
*151 net13
*152 net14
*153 net15
*154 net16
*155 net17
*156 net18
*157 net19
*158 net2
*159 net20
*160 net22
*161 net23
*162 net24
*163 net3
*164 net4
*165 net5
*166 net6
*167 net7
*168 net8
*169 net9
*170 next_state\[0\]
*171 next_state\[1\]
*172 next_state\[2\]
*173 req_idle_sync
*174 req_off_sync
*175 req_sleep_sync
*176 seq_timer\[0\]
*177 seq_timer\[1\]
*178 seq_timer\[2\]
*179 seq_timer\[3\]
*180 seq_timer\[4\]
*181 seq_timer\[5\]
*182 seq_timer\[6\]
*183 seq_timer\[7\]
*184 sync_stage1\[0\]
*185 sync_stage1\[1\]
*186 sync_stage1\[2\]
*187 sync_stage1\[3\]
*188 wake_up_sync
*189 FILLER_0_0_105
*190 FILLER_0_0_111
*191 FILLER_0_0_113
*192 FILLER_0_0_121
*193 FILLER_0_0_126
*194 FILLER_0_0_27
*195 FILLER_0_0_3
*196 FILLER_0_0_52
*197 FILLER_0_0_65
*198 FILLER_0_10_100
*199 FILLER_0_10_112
*200 FILLER_0_10_124
*201 FILLER_0_10_18
*202 FILLER_0_10_25
*203 FILLER_0_10_29
*204 FILLER_0_10_33
*205 FILLER_0_10_37
*206 FILLER_0_10_41
*207 FILLER_0_10_53
*208 FILLER_0_10_57
*209 FILLER_0_10_7
*210 FILLER_0_10_88
*211 FILLER_0_11_109
*212 FILLER_0_11_11
*213 FILLER_0_11_113
*214 FILLER_0_11_120
*215 FILLER_0_11_124
*216 FILLER_0_11_17
*217 FILLER_0_11_23
*218 FILLER_0_11_27
*219 FILLER_0_11_3
*220 FILLER_0_11_33
*221 FILLER_0_11_37
*222 FILLER_0_11_49
*223 FILLER_0_11_55
*224 FILLER_0_11_57
*225 FILLER_0_11_85
*226 FILLER_0_11_97
*227 FILLER_0_12_100
*228 FILLER_0_12_112
*229 FILLER_0_12_124
*230 FILLER_0_12_18
*231 FILLER_0_12_26
*232 FILLER_0_12_37
*233 FILLER_0_12_49
*234 FILLER_0_12_6
*235 FILLER_0_12_61
*236 FILLER_0_12_67
*237 FILLER_0_12_83
*238 FILLER_0_12_88
*239 FILLER_0_13_103
*240 FILLER_0_13_111
*241 FILLER_0_13_113
*242 FILLER_0_13_125
*243 FILLER_0_13_24
*244 FILLER_0_13_28
*245 FILLER_0_13_43
*246 FILLER_0_13_83
*247 FILLER_0_13_87
*248 FILLER_0_13_91
*249 FILLER_0_14_109
*250 FILLER_0_14_121
*251 FILLER_0_14_127
*252 FILLER_0_14_29
*253 FILLER_0_14_3
*254 FILLER_0_14_7
*255 FILLER_0_14_80
*256 FILLER_0_14_85
*257 FILLER_0_14_97
*258 FILLER_0_15_102
*259 FILLER_0_15_110
*260 FILLER_0_15_113
*261 FILLER_0_15_125
*262 FILLER_0_15_18
*263 FILLER_0_15_32
*264 FILLER_0_15_44
*265 FILLER_0_15_51
*266 FILLER_0_15_55
*267 FILLER_0_15_57
*268 FILLER_0_15_68
*269 FILLER_0_15_7
*270 FILLER_0_15_90
*271 FILLER_0_16_109
*272 FILLER_0_16_121
*273 FILLER_0_16_127
*274 FILLER_0_16_19
*275 FILLER_0_16_23
*276 FILLER_0_16_27
*277 FILLER_0_16_29
*278 FILLER_0_16_37
*279 FILLER_0_16_51
*280 FILLER_0_16_58
*281 FILLER_0_16_7
*282 FILLER_0_16_72
*283 FILLER_0_16_85
*284 FILLER_0_16_97
*285 FILLER_0_17_106
*286 FILLER_0_17_113
*287 FILLER_0_17_125
*288 FILLER_0_17_23
*289 FILLER_0_17_28
*290 FILLER_0_17_36
*291 FILLER_0_17_41
*292 FILLER_0_17_53
*293 FILLER_0_17_57
*294 FILLER_0_17_64
*295 FILLER_0_17_70
*296 FILLER_0_17_82
*297 FILLER_0_17_86
*298 FILLER_0_17_94
*299 FILLER_0_18_107
*300 FILLER_0_18_119
*301 FILLER_0_18_127
*302 FILLER_0_18_15
*303 FILLER_0_18_22
*304 FILLER_0_18_29
*305 FILLER_0_18_3
*306 FILLER_0_18_41
*307 FILLER_0_18_53
*308 FILLER_0_18_59
*309 FILLER_0_18_66
*310 FILLER_0_18_85
*311 FILLER_0_19_104
*312 FILLER_0_19_113
*313 FILLER_0_19_125
*314 FILLER_0_19_13
*315 FILLER_0_19_35
*316 FILLER_0_19_47
*317 FILLER_0_19_7
*318 FILLER_0_19_73
*319 FILLER_0_19_77
*320 FILLER_0_1_108
*321 FILLER_0_1_113
*322 FILLER_0_1_15
*323 FILLER_0_1_3
*324 FILLER_0_1_57
*325 FILLER_0_1_69
*326 FILLER_0_1_75
*327 FILLER_0_1_96
*328 FILLER_0_20_108
*329 FILLER_0_20_120
*330 FILLER_0_20_23
*331 FILLER_0_20_49
*332 FILLER_0_20_75
*333 FILLER_0_20_83
*334 FILLER_0_20_85
*335 FILLER_0_20_96
*336 FILLER_0_21_109
*337 FILLER_0_21_11
*338 FILLER_0_21_113
*339 FILLER_0_21_23
*340 FILLER_0_21_27
*341 FILLER_0_21_29
*342 FILLER_0_21_41
*343 FILLER_0_21_53
*344 FILLER_0_21_57
*345 FILLER_0_21_62
*346 FILLER_0_21_74
*347 FILLER_0_21_82
*348 FILLER_0_21_85
*349 FILLER_0_21_97
*350 FILLER_0_2_106
*351 FILLER_0_2_118
*352 FILLER_0_2_126
*353 FILLER_0_2_23
*354 FILLER_0_2_27
*355 FILLER_0_2_35
*356 FILLER_0_2_47
*357 FILLER_0_2_51
*358 FILLER_0_2_55
*359 FILLER_0_2_79
*360 FILLER_0_2_83
*361 FILLER_0_2_85
*362 FILLER_0_3_109
*363 FILLER_0_3_113
*364 FILLER_0_3_125
*365 FILLER_0_3_23
*366 FILLER_0_3_35
*367 FILLER_0_3_47
*368 FILLER_0_3_51
*369 FILLER_0_3_55
*370 FILLER_0_3_65
*371 FILLER_0_3_69
*372 FILLER_0_3_74
*373 FILLER_0_3_86
*374 FILLER_0_4_109
*375 FILLER_0_4_121
*376 FILLER_0_4_127
*377 FILLER_0_4_15
*378 FILLER_0_4_27
*379 FILLER_0_4_29
*380 FILLER_0_4_44
*381 FILLER_0_4_78
*382 FILLER_0_4_85
*383 FILLER_0_4_97
*384 FILLER_0_5_101
*385 FILLER_0_5_109
*386 FILLER_0_5_113
*387 FILLER_0_5_125
*388 FILLER_0_5_23
*389 FILLER_0_5_53
*390 FILLER_0_5_57
*391 FILLER_0_5_77
*392 FILLER_0_5_89
*393 FILLER_0_6_109
*394 FILLER_0_6_121
*395 FILLER_0_6_127
*396 FILLER_0_6_19
*397 FILLER_0_6_27
*398 FILLER_0_6_29
*399 FILLER_0_6_33
*400 FILLER_0_6_37
*401 FILLER_0_6_49
*402 FILLER_0_6_55
*403 FILLER_0_6_7
*404 FILLER_0_6_80
*405 FILLER_0_6_85
*406 FILLER_0_6_97
*407 FILLER_0_7_103
*408 FILLER_0_7_111
*409 FILLER_0_7_113
*410 FILLER_0_7_125
*411 FILLER_0_7_19
*412 FILLER_0_7_31
*413 FILLER_0_7_40
*414 FILLER_0_7_51
*415 FILLER_0_7_55
*416 FILLER_0_7_57
*417 FILLER_0_7_63
*418 FILLER_0_7_7
*419 FILLER_0_7_72
*420 FILLER_0_7_81
*421 FILLER_0_8_108
*422 FILLER_0_8_120
*423 FILLER_0_8_27
*424 FILLER_0_8_29
*425 FILLER_0_8_35
*426 FILLER_0_8_39
*427 FILLER_0_8_48
*428 FILLER_0_8_55
*429 FILLER_0_8_59
*430 FILLER_0_8_64
*431 FILLER_0_8_71
*432 FILLER_0_8_82
*433 FILLER_0_9_108
*434 FILLER_0_9_113
*435 FILLER_0_9_125
*436 FILLER_0_9_33
*437 FILLER_0_9_41
*438 FILLER_0_9_45
*439 FILLER_0_9_57
*440 FILLER_0_9_79
*441 FILLER_0_9_84
*442 FILLER_0_9_96
*443 PHY_EDGE_ROW_0_Left_22
*444 PHY_EDGE_ROW_0_Right_0
*445 PHY_EDGE_ROW_10_Left_32
*446 PHY_EDGE_ROW_10_Right_10
*447 PHY_EDGE_ROW_11_Left_33
*448 PHY_EDGE_ROW_11_Right_11
*449 PHY_EDGE_ROW_12_Left_34
*450 PHY_EDGE_ROW_12_Right_12
*451 PHY_EDGE_ROW_13_Left_35
*452 PHY_EDGE_ROW_13_Right_13
*453 PHY_EDGE_ROW_14_Left_36
*454 PHY_EDGE_ROW_14_Right_14
*455 PHY_EDGE_ROW_15_Left_37
*456 PHY_EDGE_ROW_15_Right_15
*457 PHY_EDGE_ROW_16_Left_38
*458 PHY_EDGE_ROW_16_Right_16
*459 PHY_EDGE_ROW_17_Left_39
*460 PHY_EDGE_ROW_17_Right_17
*461 PHY_EDGE_ROW_18_Left_40
*462 PHY_EDGE_ROW_18_Right_18
*463 PHY_EDGE_ROW_19_Left_41
*464 PHY_EDGE_ROW_19_Right_19
*465 PHY_EDGE_ROW_1_Left_23
*466 PHY_EDGE_ROW_1_Right_1
*467 PHY_EDGE_ROW_20_Left_42
*468 PHY_EDGE_ROW_20_Right_20
*469 PHY_EDGE_ROW_21_Left_43
*470 PHY_EDGE_ROW_21_Right_21
*471 PHY_EDGE_ROW_2_Left_24
*472 PHY_EDGE_ROW_2_Right_2
*473 PHY_EDGE_ROW_3_Left_25
*474 PHY_EDGE_ROW_3_Right_3
*475 PHY_EDGE_ROW_4_Left_26
*476 PHY_EDGE_ROW_4_Right_4
*477 PHY_EDGE_ROW_5_Left_27
*478 PHY_EDGE_ROW_5_Right_5
*479 PHY_EDGE_ROW_6_Left_28
*480 PHY_EDGE_ROW_6_Right_6
*481 PHY_EDGE_ROW_7_Left_29
*482 PHY_EDGE_ROW_7_Right_7
*483 PHY_EDGE_ROW_8_Left_30
*484 PHY_EDGE_ROW_8_Right_8
*485 PHY_EDGE_ROW_9_Left_31
*486 PHY_EDGE_ROW_9_Right_9
*487 TAP_TAPCELL_ROW_0_44
*488 TAP_TAPCELL_ROW_0_45
*489 TAP_TAPCELL_ROW_0_46
*490 TAP_TAPCELL_ROW_0_47
*491 TAP_TAPCELL_ROW_10_66
*492 TAP_TAPCELL_ROW_10_67
*493 TAP_TAPCELL_ROW_11_68
*494 TAP_TAPCELL_ROW_11_69
*495 TAP_TAPCELL_ROW_12_70
*496 TAP_TAPCELL_ROW_12_71
*497 TAP_TAPCELL_ROW_13_72
*498 TAP_TAPCELL_ROW_13_73
*499 TAP_TAPCELL_ROW_14_74
*500 TAP_TAPCELL_ROW_14_75
*501 TAP_TAPCELL_ROW_15_76
*502 TAP_TAPCELL_ROW_15_77
*503 TAP_TAPCELL_ROW_16_78
*504 TAP_TAPCELL_ROW_16_79
*505 TAP_TAPCELL_ROW_17_80
*506 TAP_TAPCELL_ROW_17_81
*507 TAP_TAPCELL_ROW_18_82
*508 TAP_TAPCELL_ROW_18_83
*509 TAP_TAPCELL_ROW_19_84
*510 TAP_TAPCELL_ROW_19_85
*511 TAP_TAPCELL_ROW_1_48
*512 TAP_TAPCELL_ROW_1_49
*513 TAP_TAPCELL_ROW_20_86
*514 TAP_TAPCELL_ROW_20_87
*515 TAP_TAPCELL_ROW_21_88
*516 TAP_TAPCELL_ROW_21_89
*517 TAP_TAPCELL_ROW_21_90
*518 TAP_TAPCELL_ROW_21_91
*519 TAP_TAPCELL_ROW_2_50
*520 TAP_TAPCELL_ROW_2_51
*521 TAP_TAPCELL_ROW_3_52
*522 TAP_TAPCELL_ROW_3_53
*523 TAP_TAPCELL_ROW_4_54
*524 TAP_TAPCELL_ROW_4_55
*525 TAP_TAPCELL_ROW_5_56
*526 TAP_TAPCELL_ROW_5_57
*527 TAP_TAPCELL_ROW_6_58
*528 TAP_TAPCELL_ROW_6_59
*529 TAP_TAPCELL_ROW_7_60
*530 TAP_TAPCELL_ROW_7_61
*531 TAP_TAPCELL_ROW_8_62
*532 TAP_TAPCELL_ROW_8_63
*533 TAP_TAPCELL_ROW_9_64
*534 TAP_TAPCELL_ROW_9_65
*535 _117_
*536 _118_
*537 _119_
*538 _120_
*539 _121_
*540 _122_
*541 _123_
*542 _124_
*543 _125_
*544 _126_
*545 _127_
*546 _128_
*547 _129_
*548 _130_
*549 _131_
*550 _132_
*551 _133_
*552 _134_
*553 _135_
*554 _136_
*555 _137_
*556 _138_
*557 _139_
*558 _140_
*559 _141_
*560 _142_
*561 _143_
*562 _144_
*563 _145_
*564 _146_
*565 _147_
*566 _148_
*567 _149_
*568 _150_
*569 _151_
*570 _152_
*571 _153_
*572 _154_
*573 _155_
*574 _156_
*575 _157_
*576 _158_
*577 _159_
*578 _160_
*579 _161_
*580 _162_
*581 _163_
*582 _164_
*583 _165_
*584 _166_
*585 _167_
*586 _168_
*587 _169_
*588 _170_
*589 _171_
*590 _172_
*591 _173_
*592 _174_
*593 _175_
*594 _176_
*595 _177_
*596 _178_
*597 _179_
*598 _180_
*599 _181_
*600 _182_
*601 _183_
*602 _184_
*603 _185_
*604 _186_
*605 _187_
*606 _188_
*607 _189_
*608 _190_
*609 _191_
*610 _192_
*611 _193_
*612 _194_
*613 _195_
*614 _196_
*615 _197_
*616 _198_
*617 _199_
*618 _200_
*619 _201_
*620 _202_
*621 _203_
*622 _204_
*623 _205_
*624 _206_
*625 _207_
*626 _208_
*627 _209_
*628 _210_
*629 _211_
*630 _212_
*631 _213_
*632 _214_
*633 _215_
*634 _216_
*635 _217_
*636 _218_
*637 _219_
*638 _220_
*639 _221_
*640 _222_
*641 _223_
*642 _224_
*643 _225_
*644 _226_
*645 _227_
*646 _228_
*647 _229_
*648 _230_
*649 _231_
*650 _232_
*651 _233_
*652 _234_
*653 _235_
*654 _236_
*655 _237_
*656 _238_
*657 _239_
*658 _240_
*659 _241_
*660 _242_
*661 _243_
*662 _244_
*663 _245_
*664 _246_
*665 _247_
*666 _248_
*667 _249_
*668 _250_
*669 _251_
*670 _252_
*671 _253_
*672 _254_
*673 _255_
*674 _256_
*675 _257_
*676 _258_
*677 _259_
*678 _260_
*679 _261_
*680 _262_
*681 _263_
*682 _264_
*683 _265_
*684 _266_
*685 clkbuf_0_clk
*686 clkbuf_1_0__f_clk
*687 clkbuf_1_1__f_clk
*688 clkload0
*689 hold1
*690 hold2
*691 hold3
*692 input1
*693 input2
*694 input3
*695 input4
*696 input5
*697 input6
*698 input7
*699 output10
*700 output11
*701 output12
*702 output13
*703 output14
*704 output15
*705 output16
*706 output17
*707 output18
*708 output8
*709 output9
*710 pmu_fsm_21
*711 wire19
*712 wire20

*PORTS
clk I
clk_gate_en O
clk_stable I
dvfs_ctrl[0] O
dvfs_ctrl[1] O
error O
pwr_gate_en O
pwr_stable I
pwr_state[0] O
pwr_state[1] O
req_idle I
req_off I
req_sleep I
reset_ctrl O
reset_n I
retention_en O
retention_ready I
retention_restore O
retention_save O
seq_busy O
wake_up I

*D_NET *3 0.00795958
*CONN
*P clk I
*I *685:A I *D sky130_fd_sc_hd__clkbuf_16
*CAP
1 clk 0.00348624
2 *685:A 0
3 *3:23 0.00348624
4 *3:23 *630:A 2.06725e-05
5 *3:23 *630:B 4.64488e-06
6 *3:23 *631:B 0.000147784
7 *3:23 *645:A 0.00012501
8 *3:23 *659:RESET_B 0
9 *3:23 *672:CLK 0
10 *3:23 *687:A 0
11 *3:23 *707:A 1.78353e-05
12 *3:23 *59:47 0.000175519
13 *3:23 *59:55 0.000363992
14 *3:23 *128:8 5.0077e-05
15 *3:23 *159:44 8.15665e-05
*RES
1 clk *3:23 45.3243 
2 *3:23 *685:A 9.3 
*END

*D_NET *4 0.00435033
*CONN
*P clk_gate_en O
*I *708:X O *D sky130_fd_sc_hd__buf_4
*CAP
1 clk_gate_en 0.00168931
2 *708:X 0.00168931
3 clk_gate_en pwr_gate_en 0.00060722
4 clk_gate_en *666:D 0.000333411
5 clk_gate_en *700:A 0
6 clk_gate_en *17:156 0
7 clk_gate_en *142:45 3.1074e-05
8 clk_gate_en *142:65 0
9 clk_gate_en *142:76 0
10 clk_gate_en *142:95 0
*RES
1 *708:X clk_gate_en 43.7223 
*END

*D_NET *5 0.000495631
*CONN
*P clk_stable I
*I *692:A I *D sky130_fd_sc_hd__clkbuf_1
*CAP
1 clk_stable 0.000234644
2 *692:A 0.000234644
3 *692:A *158:16 2.63433e-05
*RES
1 clk_stable *692:A 18.9615 
*END

*D_NET *6 0.000572832
*CONN
*P dvfs_ctrl[0] O
*I *710:HI O *D sky130_fd_sc_hd__conb_1
*CAP
1 dvfs_ctrl[0] 0.000286416
2 *710:HI 0.000286416
3 dvfs_ctrl[0] dvfs_ctrl[1] 0
4 dvfs_ctrl[0] reset_ctrl 0
*RES
1 *710:HI dvfs_ctrl[0] 20.4803 
*END

*D_NET *7 0.000680827
*CONN
*P dvfs_ctrl[1] O
*I *709:X O *D sky130_fd_sc_hd__clkbuf_2
*CAP
1 dvfs_ctrl[1] 0.000340414
2 *709:X 0.000340414
3 dvfs_ctrl[1] pwr_state[0] 0
4 dvfs_ctrl[1] *709:A 0
5 dvfs_ctrl[0] dvfs_ctrl[1] 0
*RES
1 *709:X dvfs_ctrl[1] 21.391 
*END

*D_NET *8 0.00126558
*CONN
*P error O
*I *699:X O *D sky130_fd_sc_hd__clkbuf_2
*CAP
1 error 0.000573186
2 *699:X 0.000573186
3 error seq_busy 0.000119213
*RES
1 *699:X error 25.5686 
*END

*D_NET *9 0.00350241
*CONN
*P pwr_gate_en O
*I *700:X O *D sky130_fd_sc_hd__buf_4
*CAP
1 pwr_gate_en 0.00128861
2 *700:X 0.00128861
3 pwr_gate_en retention_en 0
4 pwr_gate_en *666:D 0.000277497
5 pwr_gate_en *689:A 0
6 pwr_gate_en *700:A 4.04664e-05
7 pwr_gate_en *17:160 0
8 pwr_gate_en *17:166 0
9 clk_gate_en pwr_gate_en 0.00060722
*RES
1 *700:X pwr_gate_en 34.7574 
*END

*D_NET *10 0.000492954
*CONN
*P pwr_stable I
*I *693:A I *D sky130_fd_sc_hd__clkbuf_1
*CAP
1 pwr_stable 0.000246477
2 *693:A 0.000246477
*RES
1 pwr_stable *693:A 18.9615 
*END

*D_NET *11 0.000597429
*CONN
*P pwr_state[0] O
*I *701:X O *D sky130_fd_sc_hd__clkbuf_2
*CAP
1 pwr_state[0] 0.000298715
2 *701:X 0.000298715
3 pwr_state[0] pwr_state[1] 0
4 pwr_state[0] *701:A 0
5 dvfs_ctrl[1] pwr_state[0] 0
*RES
1 *701:X pwr_state[0] 20.5132 
*END

*D_NET *12 0.000580317
*CONN
*P pwr_state[1] O
*I *702:X O *D sky130_fd_sc_hd__clkbuf_2
*CAP
1 pwr_state[1] 0.000290158
2 *702:X 0.000290158
3 pwr_state[1] seq_busy 0
4 pwr_state[0] pwr_state[1] 0
*RES
1 *702:X pwr_state[1] 20.4803 
*END

*D_NET *13 0.00137698
*CONN
*P req_idle I
*I *689:A I *D sky130_fd_sc_hd__dlygate4sd3_1
*CAP
1 req_idle 0.000685463
2 *689:A 0.000685463
3 *689:A *667:RESET_B 6.05161e-06
4 *689:A *694:A 0
5 *689:A *17:166 0
6 pwr_gate_en *689:A 0
*RES
1 req_idle *689:A 25.9071 
*END

*D_NET *14 0.00084458
*CONN
*P req_off I
*I *690:A I *D sky130_fd_sc_hd__dlygate4sd3_1
*CAP
1 req_off 0.000416325
2 *690:A 0.000416325
3 *690:A *677:RESET_B 1.19309e-05
*RES
1 req_off *690:A 21.8357 
*END

*D_NET *15 0.00155792
*CONN
*P req_sleep I
*I *691:A I *D sky130_fd_sc_hd__dlygate4sd3_1
*CAP
1 req_sleep 0.00077896
2 *691:A 0.00077896
*RES
1 req_sleep *691:A 37.5321 
*END

*D_NET *16 0.000867858
*CONN
*P reset_ctrl O
*I *703:X O *D sky130_fd_sc_hd__buf_2
*CAP
1 reset_ctrl 0.000433929
2 *703:X 0.000433929
3 reset_ctrl retention_restore 0
4 reset_ctrl *703:A 0
5 dvfs_ctrl[0] reset_ctrl 0
*RES
1 *703:X reset_ctrl 21.9088 
*END

*D_NET *17 0.034934
*CONN
*P reset_n I
*I *661:RESET_B I *D sky130_fd_sc_hd__dfrtp_1
*I *671:RESET_B I *D sky130_fd_sc_hd__dfrtp_1
*I *670:RESET_B I *D sky130_fd_sc_hd__dfrtp_1
*I *674:RESET_B I *D sky130_fd_sc_hd__dfrtp_4
*I *669:RESET_B I *D sky130_fd_sc_hd__dfrtp_1
*I *668:RESET_B I *D sky130_fd_sc_hd__dfrtp_1
*I *666:RESET_B I *D sky130_fd_sc_hd__dfrtp_1
*I *667:RESET_B I *D sky130_fd_sc_hd__dfrtp_1
*I *680:RESET_B I *D sky130_fd_sc_hd__dfrtp_1
*I *679:RESET_B I *D sky130_fd_sc_hd__dfrtp_1
*I *683:RESET_B I *D sky130_fd_sc_hd__dfrtp_1
*I *682:RESET_B I *D sky130_fd_sc_hd__dfrtp_1
*I *676:RESET_B I *D sky130_fd_sc_hd__dfrtp_4
*I *675:RESET_B I *D sky130_fd_sc_hd__dfrtp_1
*I *681:RESET_B I *D sky130_fd_sc_hd__dfrtp_1
*I *677:RESET_B I *D sky130_fd_sc_hd__dfrtp_1
*I *678:RESET_B I *D sky130_fd_sc_hd__dfrtp_1
*I *684:RESET_B I *D sky130_fd_sc_hd__dfrtp_1
*I *657:SET_B I *D sky130_fd_sc_hd__dfstp_1
*I *658:RESET_B I *D sky130_fd_sc_hd__dfrtp_1
*I *660:RESET_B I *D sky130_fd_sc_hd__dfrtp_1
*I *659:RESET_B I *D sky130_fd_sc_hd__dfrtp_1
*I *672:RESET_B I *D sky130_fd_sc_hd__dfrtp_1
*I *673:RESET_B I *D sky130_fd_sc_hd__dfrtp_1
*I *662:RESET_B I *D sky130_fd_sc_hd__dfrtp_1
*I *663:RESET_B I *D sky130_fd_sc_hd__dfrtp_1
*I *664:RESET_B I *D sky130_fd_sc_hd__dfrtp_1
*I *665:RESET_B I *D sky130_fd_sc_hd__dfrtp_1
*CAP
1 reset_n 0.000617385
2 *661:RESET_B 0
3 *671:RESET_B 0
4 *670:RESET_B 0
5 *674:RESET_B 0.000593622
6 *669:RESET_B 0.000593622
7 *668:RESET_B 0
8 *666:RESET_B 0
9 *667:RESET_B 0.000147022
10 *680:RESET_B 3.99586e-06
11 *679:RESET_B 2.05806e-05
12 *683:RESET_B 1.25902e-05
13 *682:RESET_B 5.77603e-05
14 *676:RESET_B 0.000176214
15 *675:RESET_B 0
16 *681:RESET_B 0.000142423
17 *677:RESET_B 0.000308571
18 *678:RESET_B 6.07135e-05
19 *684:RESET_B 3.68681e-05
20 *657:SET_B 0.000896635
21 *658:RESET_B 2.80259e-05
22 *660:RESET_B 9.90658e-06
23 *659:RESET_B 9.18227e-05
24 *672:RESET_B 0.000381158
25 *673:RESET_B 0.000273038
26 *662:RESET_B 6.58535e-06
27 *663:RESET_B 0.00065534
28 *664:RESET_B 9.20438e-05
29 *665:RESET_B 0.000205774
30 *17:237 0.000682186
31 *17:227 0.000839847
32 *17:215 0.000500023
33 *17:213 0.000181572
34 *17:200 0.00085414
35 *17:196 0.001572
36 *17:184 0.00134073
37 *17:170 0.00117435
38 *17:166 0.000939276
39 *17:160 0.000455623
40 *17:158 0.000207886
41 *17:156 0.000388812
42 *17:152 0.000607188
43 *17:150 0.000527459
44 *17:148 0.000680096
45 *17:122 0.00101888
46 *17:108 0.00130044
47 *17:96 0.00120681
48 *17:61 0.000918068
49 *17:59 0.000868328
50 *17:49 0.00110899
51 *17:37 0.00102767
52 *17:11 0.000399989
53 *17:9 0.00117272
54 *657:SET_B *621:A 0.000101545
55 *657:SET_B *657:D 7.81913e-05
56 *657:SET_B *671:CLK 2.89114e-05
57 *657:SET_B *49:20 0
58 *657:SET_B *143:33 5.62995e-05
59 *658:RESET_B *658:CLK 2.51837e-05
60 *659:RESET_B *645:A 2.34204e-05
61 *659:RESET_B *157:14 0
62 *660:RESET_B *143:25 2.48016e-05
63 *662:RESET_B *143:116 2.72654e-05
64 *663:RESET_B *143:114 0.000223808
65 *663:RESET_B *181:12 5.33433e-05
66 *664:RESET_B *182:6 0.000136772
67 *665:RESET_B *183:6 5.00444e-05
68 *667:RESET_B *700:A 0.00010096
69 *672:RESET_B *632:A 0.000181415
70 *672:RESET_B *659:CLK 0
71 *672:RESET_B *672:CLK 7.25873e-06
72 *672:RESET_B *672:D 5.65233e-05
73 *672:RESET_B *673:D 2.34204e-05
74 *672:RESET_B *707:A 0.00025974
75 *672:RESET_B *49:20 8.0574e-05
76 *672:RESET_B *159:44 0.000219764
77 *673:RESET_B *659:CLK 6.51852e-05
78 *674:RESET_B *669:D 0.000182799
79 *674:RESET_B *674:D 8.82043e-05
80 *674:RESET_B *142:97 1.35465e-05
81 *676:RESET_B *676:CLK 9.6453e-05
82 *676:RESET_B *676:D 9.96553e-05
83 *676:RESET_B *146:8 0.000178794
84 *677:RESET_B *678:D 0
85 *677:RESET_B *681:D 1.20244e-05
86 *679:RESET_B *679:D 4.8474e-05
87 *679:RESET_B *142:33 9.17414e-05
88 *680:RESET_B *680:CLK 2.81497e-05
89 *17:37 *651:B 0.000487467
90 *17:37 *653:A 5.71472e-05
91 *17:37 *653:B 0.000340154
92 *17:37 *654:A 0.000162282
93 *17:37 *143:114 0.00040381
94 *17:49 *143:114 0.000255276
95 *17:49 *143:116 0.000224521
96 *17:49 *180:12 0.000317039
97 *17:59 *662:D 9.87672e-05
98 *17:59 *143:116 0.000198623
99 *17:61 *659:CLK 3.69047e-06
100 *17:61 *662:D 0.000181796
101 *17:61 *143:118 5.01338e-05
102 *17:96 *651:B 8.28293e-05
103 *17:96 *654:B 2.80706e-05
104 *17:96 *59:102 4.68532e-05
105 *17:96 *86:10 0.00010288
106 *17:96 *143:114 0
107 *17:96 *148:18 0.000155683
108 *17:96 *181:12 4.18562e-05
109 *17:108 *537:A 0.000569207
110 *17:108 *86:10 0.000202842
111 *17:108 *136:30 0
112 *17:108 *143:16 0.000232345
113 *17:108 *143:25 0.000226272
114 *17:108 *148:18 0.000109809
115 *17:108 *178:34 3.71887e-05
116 *17:122 *658:CLK 0.000110029
117 *17:122 *143:25 0.000288988
118 *17:122 *159:31 0.000219289
119 *17:148 *657:D 0.000324167
120 *17:148 *670:D 0
121 *17:148 *49:20 0
122 *17:150 *669:D 0
123 *17:150 *670:D 0
124 *17:156 retention_save 0
125 *17:156 *700:A 0.00015234
126 *17:156 *708:A 0
127 *17:158 *700:A 0.00027438
128 *17:158 *708:A 0
129 *17:160 *700:A 0.000101689
130 *17:166 *680:CLK 2.89114e-05
131 *17:170 *680:CLK 0.000114093
132 *17:170 *680:D 0
133 *17:170 *684:CLK 9.27866e-05
134 *17:170 *684:D 4.28162e-05
135 *17:184 *679:D 0
136 *17:196 *562:A 2.78512e-05
137 *17:196 *683:D 0.00018077
138 *17:200 *565:A 3.18676e-05
139 *17:200 *109:12 3.63889e-05
140 *17:200 *174:12 0.000129293
141 *17:213 *174:12 2.72967e-05
142 *17:227 *681:D 0
143 *17:237 *591:A2 0
144 *17:237 *188:12 6.74911e-05
145 clk_gate_en *17:156 0
146 pwr_gate_en *17:160 0
147 pwr_gate_en *17:166 0
148 *689:A *667:RESET_B 6.05161e-06
149 *689:A *17:166 0
150 *690:A *677:RESET_B 1.19309e-05
151 *3:23 *659:RESET_B 0
*RES
1 reset_n *17:9 11.8036 
2 *17:9 *17:11 1.64286 
3 *17:11 *665:RESET_B 8.4375 
4 *17:11 *664:RESET_B 6.20536 
5 *17:9 *17:37 17.0893 
6 *17:37 *663:RESET_B 2.11607 
7 *663:RESET_B *17:49 11.2054 
8 *17:49 *662:RESET_B 0.473214 
9 *17:49 *17:59 7.125 
10 *17:59 *17:61 3.41071 
11 *17:61 *673:RESET_B 3.90179 
12 *17:61 *672:RESET_B 18.5446 
13 *17:59 *659:RESET_B 10.6429 
14 *17:37 *17:96 16.1607 
15 *17:96 *17:108 28.7143 
16 *17:108 *660:RESET_B 0.473214 
17 *17:108 *17:122 10.1429 
18 *17:122 *658:RESET_B 0.473214 
19 *17:122 *657:SET_B 15.0625 
20 *657:SET_B *17:148 14.875 
21 *17:148 *17:150 3.46429 
22 *17:150 *17:152 6.5 
23 *17:152 *17:156 5.51786 
24 *17:156 *17:158 3.46429 
25 *17:158 *17:160 1.64286 
26 *17:160 *17:166 8.5 
27 *17:166 *17:170 9.58929 
28 *17:170 *684:RESET_B 0.901786 
29 *17:170 *17:184 10.8571 
30 *17:184 *17:196 16.0893 
31 *17:196 *17:200 9.17857 
32 *17:200 *678:RESET_B 10.3393 
33 *17:200 *17:213 1.78571 
34 *17:213 *17:215 4.5 
35 *17:215 *677:RESET_B 9.95536 
36 *17:215 *17:227 3.46429 
37 *17:227 *681:RESET_B 6.61607 
38 *17:227 *17:237 9.53571 
39 *17:237 *675:RESET_B 4.5 
40 *17:237 *676:RESET_B 9.09821 
41 *17:213 *682:RESET_B 0.883929 
42 *17:196 *683:RESET_B 0.473214 
43 *17:184 *679:RESET_B 5.38393 
44 *17:166 *680:RESET_B 0.473214 
45 *17:160 *667:RESET_B 7.02679 
46 *17:158 *666:RESET_B 4.5 
47 *17:156 *668:RESET_B 4.5 
48 *17:152 *669:RESET_B 4.5 
49 *669:RESET_B *674:RESET_B 8.5 
50 *17:150 *670:RESET_B 4.5 
51 *17:148 *671:RESET_B 4.5 
52 *17:96 *661:RESET_B 4.5 
*END

*D_NET *18 0.00220781
*CONN
*P retention_en O
*I *704:X O *D sky130_fd_sc_hd__buf_4
*CAP
1 retention_en 0.00110391
2 *704:X 0.00110391
3 retention_en retention_save 0
4 retention_en *142:65 0
5 pwr_gate_en retention_en 0
*RES
1 *704:X retention_en 20.5164 
*END

*D_NET *19 0.000504879
*CONN
*P retention_ready I
*I *697:A I *D sky130_fd_sc_hd__buf_1
*CAP
1 retention_ready 0.000246342
2 *697:A 0.000246342
3 *697:A *166:10 1.21955e-05
*RES
1 retention_ready *697:A 18.9615 
*END

*D_NET *20 0.000824029
*CONN
*P retention_restore O
*I *705:X O *D sky130_fd_sc_hd__buf_2
*CAP
1 retention_restore 0.000412015
2 *705:X 0.000412015
3 retention_restore retention_save 0
4 reset_ctrl retention_restore 0
*RES
1 *705:X retention_restore 21.6053 
*END

*D_NET *21 0.000935013
*CONN
*P retention_save O
*I *706:X O *D sky130_fd_sc_hd__buf_2
*CAP
1 retention_save 0.00044764
2 *706:X 0.00044764
3 retention_save *706:A 3.9733e-05
4 retention_en retention_save 0
5 retention_restore retention_save 0
6 *17:156 retention_save 0
*RES
1 *706:X retention_save 21.9098 
*END

*D_NET *22 0.00112962
*CONN
*P seq_busy O
*I *707:X O *D sky130_fd_sc_hd__clkbuf_2
*CAP
1 seq_busy 0.000432817
2 *707:X 0.000432817
3 seq_busy *157:14 0.000144773
4 error seq_busy 0.000119213
5 pwr_state[1] seq_busy 0
*RES
1 *707:X seq_busy 21.5859 
*END

*D_NET *23 0.00096053
*CONN
*P wake_up I
*I *698:A I *D sky130_fd_sc_hd__clkbuf_1
*CAP
1 wake_up 0.000465809
2 *698:A 0.000465809
3 *698:A *677:D 2.89114e-05
*RES
1 wake_up *698:A 22.6571 
*END

*D_NET *24 0.0017035
*CONN
*I *666:D I *D sky130_fd_sc_hd__dfrtp_1
*I *606:X O *D sky130_fd_sc_hd__o21a_1
*CAP
1 *666:D 0.000545506
2 *606:X 0.000545506
3 *666:D *88:16 1.58213e-06
4 clk_gate_en *666:D 0.000333411
5 pwr_gate_en *666:D 0.000277497
*RES
1 *606:X *666:D 36.725 
*END

*D_NET *25 0.00086558
*CONN
*I *657:D I *D sky130_fd_sc_hd__dfstp_1
*I *608:Y O *D sky130_fd_sc_hd__inv_2
*CAP
1 *657:D 0.000231611
2 *608:Y 0.000231611
3 *657:D *49:20 0
4 *657:SET_B *657:D 7.81913e-05
5 *17:148 *657:D 0.000324167
*RES
1 *608:Y *657:D 33.4393 
*END

*D_NET *26 0.00451022
*CONN
*I *602:A I *D sky130_fd_sc_hd__nand3_1
*I *667:D I *D sky130_fd_sc_hd__dfrtp_1
*I *601:Y O *D sky130_fd_sc_hd__nor2_1
*CAP
1 *602:A 0
2 *667:D 0.00109572
3 *601:Y 0.000597919
4 *26:10 0.00169364
5 *667:D *567:B 5.59013e-05
6 *667:D *667:CLK 5.65955e-05
7 *667:D *679:D 0.000259031
8 *667:D *683:CLK 0.000123295
9 *667:D *683:D 4.13477e-05
10 *667:D *109:12 0
11 *667:D *142:31 3.80953e-06
12 *667:D *142:33 5.30455e-05
13 *667:D *142:37 4.7812e-05
14 *26:10 *566:B 0
15 *26:10 *567:B 0.000166983
16 *26:10 *572:A 0.000117381
17 *26:10 *603:C1 0.000149753
18 *26:10 *88:68 4.79864e-05
19 *26:10 *90:16 0
20 *26:10 *105:14 0
21 *26:10 *109:12 0
*RES
1 *601:Y *26:10 24.9071 
2 *26:10 *667:D 30.9429 
3 *26:10 *602:A 13.8 
*END

*D_NET *27 0.00338596
*CONN
*I *669:D I *D sky130_fd_sc_hd__dfrtp_1
*I *616:X O *D sky130_fd_sc_hd__o211a_1
*CAP
1 *669:D 0.000778951
2 *616:X 0.000778951
3 *669:D *547:B 4.73656e-05
4 *669:D *614:A2 0.000177234
5 *669:D *615:A1 0.000186397
6 *669:D *616:A1 7.43578e-06
7 *669:D *668:D 0.000160593
8 *669:D *670:CLK 0.000531364
9 *669:D *670:D 0
10 *669:D *671:CLK 0.000506335
11 *669:D *46:10 0
12 *669:D *142:97 2.85321e-05
13 *674:RESET_B *669:D 0.000182799
14 *17:150 *669:D 0
*RES
1 *616:X *669:D 47.8679 
*END

*D_NET *28 0.000568814
*CONN
*I *658:D I *D sky130_fd_sc_hd__dfrtp_1
*I *628:Y O *D sky130_fd_sc_hd__nor2_1
*CAP
1 *658:D 0.00028239
2 *628:Y 0.00028239
3 *658:D *628:B 4.0342e-06
4 *658:D *709:A 0
5 *658:D *49:20 0
*RES
1 *628:Y *658:D 31.6179 
*END

*D_NET *29 0.000315269
*CONN
*I *659:D I *D sky130_fd_sc_hd__dfrtp_1
*I *632:Y O *D sky130_fd_sc_hd__nor2_1
*CAP
1 *659:D 0.00013628
2 *632:Y 0.00013628
3 *659:D *49:20 3.54498e-05
4 *659:D *59:55 7.25873e-06
*RES
1 *632:Y *659:D 29.7786 
*END

*D_NET *30 0.000875386
*CONN
*I *660:D I *D sky130_fd_sc_hd__dfrtp_1
*I *637:Y O *D sky130_fd_sc_hd__nor2_1
*CAP
1 *660:D 0.000300214
2 *637:Y 0.000300214
3 *660:D *136:30 7.83659e-05
4 *660:D *143:25 0.000196592
5 *660:D *178:34 0
*RES
1 *637:Y *660:D 32.1045 
*END

*D_NET *31 0.00213831
*CONN
*I *661:D I *D sky130_fd_sc_hd__dfrtp_1
*I *641:Y O *D sky130_fd_sc_hd__nor2_1
*CAP
1 *661:D 0.000668453
2 *641:Y 0.000668453
3 *661:D *656:A 0.000272338
4 *661:D *59:102 5.37198e-05
5 *661:D *86:10 0
6 *661:D *143:80 1.02504e-05
7 *661:D *143:95 0.000283983
8 *661:D *148:18 0.000181114
*RES
1 *641:Y *661:D 38.475 
*END

*D_NET *32 0.000546516
*CONN
*I *662:D I *D sky130_fd_sc_hd__dfrtp_1
*I *645:Y O *D sky130_fd_sc_hd__nor2_1
*CAP
1 *662:D 5.99651e-05
2 *645:Y 5.99651e-05
3 *662:D *143:116 7.27949e-05
4 *662:D *143:118 7.32272e-05
5 *17:59 *662:D 9.87672e-05
6 *17:61 *662:D 0.000181796
*RES
1 *645:Y *662:D 21.1893 
*END

*D_NET *33 0.000479287
*CONN
*I *663:D I *D sky130_fd_sc_hd__dfrtp_1
*I *650:Y O *D sky130_fd_sc_hd__nor2_1
*CAP
1 *663:D 0.00013892
2 *650:Y 0.00013892
3 *663:D *59:35 0.000175512
4 *663:D *59:47 2.59355e-05
*RES
1 *650:Y *663:D 30.3857 
*END

*D_NET *34 0.000340268
*CONN
*I *664:D I *D sky130_fd_sc_hd__dfrtp_1
*I *654:Y O *D sky130_fd_sc_hd__nor2_1
*CAP
1 *664:D 0.000112129
2 *654:Y 0.000112129
3 *664:D *652:B 6.05161e-06
4 *664:D *182:10 0.00010996
*RES
1 *654:Y *664:D 20.7786 
*END

*D_NET *35 0.000855804
*CONN
*I *665:D I *D sky130_fd_sc_hd__dfrtp_1
*I *656:Y O *D sky130_fd_sc_hd__nor2_1
*CAP
1 *665:D 0.000302168
2 *656:Y 0.000302168
3 *665:D *539:A 2.85234e-05
4 *665:D *539:B 5.59275e-05
5 *665:D *85:12 2.93776e-05
6 *665:D *143:101 0.000137639
*RES
1 *656:Y *665:D 24.2071 
*END

*D_NET *36 0.00149708
*CONN
*I *595:A I *D sky130_fd_sc_hd__nor2_1
*I *594:Y O *D sky130_fd_sc_hd__nand2_1
*CAP
1 *595:A 0.000463793
2 *594:Y 0.000463793
3 *595:A *545:B 5.52238e-05
4 *595:A *583:A 4.70078e-05
5 *595:A *583:B 5.52238e-05
6 *595:A *584:A 2.03079e-05
7 *595:A *584:B 1.35346e-05
8 *595:A *589:B 9.90431e-05
9 *595:A *596:A 4.22908e-05
10 *595:A *38:10 1.74352e-05
11 *595:A *89:16 0
12 *595:A *92:16 6.3021e-05
13 *595:A *92:24 3.06868e-05
14 *595:A *127:10 0.000125724
15 *595:A *129:12 0
*RES
1 *594:Y *595:A 35.5464 
*END

*D_NET *37 0.000217788
*CONN
*I *596:A I *D sky130_fd_sc_hd__nor2_1
*I *595:Y O *D sky130_fd_sc_hd__nor2_1
*CAP
1 *596:A 5.1419e-05
2 *595:Y 5.1419e-05
3 *596:A *589:B 1.74352e-05
4 *596:A *38:10 5.52238e-05
5 *595:A *596:A 4.22908e-05
*RES
1 *595:Y *596:A 19.975 
*END

*D_NET *38 0.00126303
*CONN
*I *622:A I *D sky130_fd_sc_hd__nand3_1
*I *605:A I *D sky130_fd_sc_hd__nand2_1
*I *596:Y O *D sky130_fd_sc_hd__nor2_1
*CAP
1 *622:A 0
2 *605:A 0.000172595
3 *596:Y 0.000200747
4 *38:10 0.000373342
5 *605:A *592:A 4.27842e-06
6 *605:A *676:D 2.85234e-05
7 *605:A *145:6 2.11336e-05
8 *38:10 *590:B1 0.000168226
9 *38:10 *592:A 9.50822e-05
10 *38:10 *627:A 0.000126439
11 *595:A *38:10 1.74352e-05
12 *596:A *38:10 5.52238e-05
*RES
1 *596:Y *38:10 19.1214 
2 *38:10 *605:A 16.5857 
3 *38:10 *622:A 13.8 
*END

*D_NET *39 0.0019084
*CONN
*I *604:A2 I *D sky130_fd_sc_hd__a21oi_1
*I *612:A I *D sky130_fd_sc_hd__or3b_1
*I *597:Y O *D sky130_fd_sc_hd__inv_2
*CAP
1 *604:A2 5.81093e-05
2 *612:A 0.000531716
3 *597:Y 0
4 *39:4 0.000589826
5 *604:A2 *571:B 4.43256e-05
6 *604:A2 *604:B1 1.3701e-05
7 *604:A2 *611:B 1.77294e-05
8 *604:A2 *115:8 3.93247e-05
9 *612:A *571:A 3.08664e-05
10 *612:A *571:B 0.00027218
11 *612:A *611:B 0.000104172
12 *612:A *48:8 9.81603e-05
13 *612:A *115:8 0.000108289
*RES
1 *597:Y *39:4 9.3 
2 *39:4 *612:A 19.7107 
3 *39:4 *604:A2 11.1036 
*END

*D_NET *40 0.00365942
*CONN
*I *603:A2 I *D sky130_fd_sc_hd__o211ai_2
*I *607:B I *D sky130_fd_sc_hd__nor2_1
*I *598:Y O *D sky130_fd_sc_hd__nand2_1
*CAP
1 *603:A2 0.000432494
2 *607:B 0.000741557
3 *598:Y 0
4 *40:4 0.00117405
5 *603:A2 *591:B1 1.87331e-05
6 *603:A2 *44:10 5.49995e-05
7 *603:A2 *88:68 0.00035408
8 *603:A2 *144:69 6.05543e-05
9 *607:B *575:A 4.65556e-05
10 *607:B *607:A 0.000147895
11 *607:B *609:B1 5.33005e-05
12 *607:B *46:10 1.59373e-05
13 *607:B *90:12 0.000175418
14 *607:B *90:49 2.28343e-05
15 *607:B *105:14 9.15842e-06
16 *607:B *105:36 0.000198252
17 *607:B *136:30 3.10819e-05
18 *607:B *146:59 0.000122523
*RES
1 *598:Y *40:4 9.3 
2 *40:4 *607:B 39.5679 
3 *40:4 *603:A2 15.4964 
*END

*D_NET *41 0.000543891
*CONN
*I *600:A I *D sky130_fd_sc_hd__nand3_1
*I *599:Y O *D sky130_fd_sc_hd__nand2_1
*CAP
1 *600:A 0.000166487
2 *599:Y 0.000166487
3 *600:A *560:A1 4.46186e-06
4 *600:A *599:A 8.07313e-05
5 *600:A *103:17 0.000125724
*RES
1 *599:Y *600:A 30.6 
*END

*D_NET *42 0.00155925
*CONN
*I *603:B1 I *D sky130_fd_sc_hd__o211ai_2
*I *600:Y O *D sky130_fd_sc_hd__nand3_1
*CAP
1 *603:B1 0.000537635
2 *600:Y 0.000537635
3 *603:B1 *572:A 7.95353e-05
4 *603:B1 *591:A2 5.49995e-05
5 *603:B1 *591:A3 3.54498e-05
6 *603:B1 *603:C1 1.25924e-05
7 *603:B1 *103:17 4.27842e-06
8 *603:B1 *112:19 5.71472e-05
9 *603:B1 *144:69 0.000239977
*RES
1 *600:Y *603:B1 44.2607 
*END

*D_NET *43 0.000573189
*CONN
*I *603:C1 I *D sky130_fd_sc_hd__o211ai_2
*I *602:Y O *D sky130_fd_sc_hd__nand3_1
*CAP
1 *603:C1 0.000178886
2 *602:Y 0.000178886
3 *603:C1 *566:B 2.79092e-05
4 *603:C1 *569:A 2.51629e-05
5 *603:B1 *603:C1 1.25924e-05
6 *26:10 *603:C1 0.000149753
*RES
1 *602:Y *603:C1 31.3679 
*END

*D_NET *44 0.00301019
*CONN
*I *604:B1 I *D sky130_fd_sc_hd__a21oi_1
*I *623:A I *D sky130_fd_sc_hd__inv_2
*I *603:Y O *D sky130_fd_sc_hd__o211ai_2
*CAP
1 *604:B1 0.000173012
2 *623:A 0.0001117
3 *603:Y 0.000266605
4 *44:10 0.000551317
5 *604:B1 *573:B 2.37713e-05
6 *604:B1 *611:B 0.000143557
7 *604:B1 *627:C 0.000144038
8 *604:B1 *686:A 0.000143184
9 *604:B1 *45:10 0.000269422
10 *604:B1 *115:16 0
11 *623:A *590:A2 2.51343e-06
12 *623:A *590:B1 0.000118599
13 *623:A *592:B 1.35553e-05
14 *623:A *146:14 0.000305403
15 *44:10 *572:A 6.53562e-05
16 *44:10 *573:B 3.14003e-05
17 *44:10 *686:A 0.000353533
18 *44:10 *88:68 4.58402e-05
19 *44:10 *90:49 0
20 *44:10 *144:69 5.66971e-05
21 *44:10 *146:16 0.000121987
22 *603:A2 *44:10 5.49995e-05
23 *604:A2 *604:B1 1.3701e-05
*RES
1 *603:Y *44:10 20.8357 
2 *44:10 *623:A 17.2286 
3 *44:10 *604:B1 19.675 
*END

*D_NET *45 0.00294674
*CONN
*I *622:C I *D sky130_fd_sc_hd__nand3_1
*I *605:B I *D sky130_fd_sc_hd__nand2_1
*I *604:Y O *D sky130_fd_sc_hd__a21oi_1
*CAP
1 *622:C 1.17492e-05
2 *605:B 0.000118482
3 *604:Y 0.000422675
4 *45:10 0.000552905
5 *605:B *588:B 9.96553e-05
6 *605:B *145:23 5.66971e-05
7 *622:C *592:A 5.50052e-05
8 *622:C *146:10 5.50052e-05
9 *45:10 *571:B 0.000438788
10 *45:10 *588:B 0.000187331
11 *45:10 *592:A 3.54808e-05
12 *45:10 *593:A 0.000101545
13 *45:10 *611:B 7.28899e-05
14 *45:10 *627:A 0.000113084
15 *45:10 *89:12 0.000356028
16 *604:B1 *45:10 0.000269422
*RES
1 *604:Y *45:10 25.5143 
2 *45:10 *605:B 16.2821 
3 *45:10 *622:C 14.3357 
*END

*D_NET *46 0.00288889
*CONN
*I *608:A I *D sky130_fd_sc_hd__inv_2
*I *611:A I *D sky130_fd_sc_hd__nor2_1
*I *607:Y O *D sky130_fd_sc_hd__nor2_1
*CAP
1 *608:A 0.000512807
2 *611:A 0
3 *607:Y 0.000292936
4 *46:10 0.000805743
5 *608:A *547:A 0.000186662
6 *608:A *570:A 0
7 *608:A *614:A2 0
8 *608:A *614:B1 7.57869e-05
9 *608:A *712:A 0
10 *608:A *88:16 0.000179656
11 *608:A *92:24 0.000272371
12 *608:A *100:10 0
13 *46:10 *607:A 1.32056e-05
14 *46:10 *615:B1 0.000195562
15 *46:10 *88:16 0.000338221
16 *607:B *46:10 1.59373e-05
17 *669:D *46:10 0
*RES
1 *607:Y *46:10 19.9429 
2 *46:10 *611:A 13.8 
3 *46:10 *608:A 24.9071 
*END

*D_NET *47 0.00199377
*CONN
*I *614:B1 I *D sky130_fd_sc_hd__a21o_1
*I *612:B I *D sky130_fd_sc_hd__or3b_1
*I *610:Y O *D sky130_fd_sc_hd__nor2_1
*CAP
1 *614:B1 0.0002304
2 *612:B 0
3 *610:Y 0.000327857
4 *47:10 0.000558257
5 *614:B1 *555:A 9.3111e-05
6 *614:B1 *555:B 0.000131824
7 *614:B1 *615:A2 0.000100726
8 *614:B1 *615:B1 8.25098e-05
9 *614:B1 *100:10 1.52978e-05
10 *614:B1 *100:25 0.000137983
11 *47:10 *610:A 2.59355e-05
12 *47:10 *610:B 7.20217e-06
13 *47:10 *615:A1 9.10431e-06
14 *47:10 *615:A2 3.92854e-05
15 *47:10 *615:B1 0.000158491
16 *608:A *614:B1 7.57869e-05
*RES
1 *610:Y *47:10 19.3714 
2 *47:10 *612:B 13.8 
3 *47:10 *614:B1 20.0857 
*END

*D_NET *48 0.000992369
*CONN
*I *612:C_N I *D sky130_fd_sc_hd__or3b_1
*I *615:B1 I *D sky130_fd_sc_hd__o21ai_1
*I *611:Y O *D sky130_fd_sc_hd__nor2_1
*CAP
1 *612:C_N 0
2 *615:B1 0.000152617
3 *611:Y 7.04908e-05
4 *48:8 0.000223108
5 *615:B1 *615:A1 0
6 *615:B1 *615:A2 7.43578e-06
7 *48:8 *611:B 3.99614e-06
8 *612:A *48:8 9.81603e-05
9 *614:B1 *615:B1 8.25098e-05
10 *46:10 *615:B1 0.000195562
11 *47:10 *615:B1 0.000158491
*RES
1 *611:Y *48:8 10.675 
2 *48:8 *615:B1 22.2107 
3 *48:8 *612:C_N 9.3 
*END

*D_NET *49 0.00438538
*CONN
*I *613:A I *D sky130_fd_sc_hd__clkbuf_1
*I *612:X O *D sky130_fd_sc_hd__or3b_1
*CAP
1 *613:A 0
2 *612:X 0.00144943
3 *49:20 0.00144943
4 *49:20 *616:A1 0
5 *49:20 *620:B 1.69115e-05
6 *49:20 *621:A 0
7 *49:20 *628:B 0.000529617
8 *49:20 *630:A 0
9 *49:20 *632:A 0.000127939
10 *49:20 *659:CLK 3.62988e-05
11 *49:20 *671:CLK 0.000387442
12 *49:20 *671:D 8.00806e-05
13 *49:20 *673:D 3.37643e-05
14 *49:20 *94:12 0
15 *49:20 *159:31 0
16 *49:20 *159:44 0.000120499
17 *49:20 *176:10 3.79467e-05
18 *657:D *49:20 0
19 *657:SET_B *49:20 0
20 *658:D *49:20 0
21 *659:D *49:20 3.54498e-05
22 *672:RESET_B *49:20 8.0574e-05
23 *17:148 *49:20 0
*RES
1 *612:X *49:20 48.0679 
2 *49:20 *613:A 9.3 
*END

*D_NET *50 0.000426788
*CONN
*I *618:B1 I *D sky130_fd_sc_hd__a211oi_1
*I *617:Y O *D sky130_fd_sc_hd__nand2_1
*CAP
1 *618:B1 0.000175263
2 *617:Y 0.000175263
3 *618:B1 *617:A 1.69108e-05
4 *618:B1 *617:B 1.04232e-05
5 *618:B1 *618:A1 1.15172e-05
6 *618:B1 *148:18 3.74103e-05
*RES
1 *617:Y *618:B1 21.35 
*END

*D_NET *51 0.000949671
*CONN
*I *621:A I *D sky130_fd_sc_hd__nand2_1
*I *619:X O *D sky130_fd_sc_hd__or2_1
*CAP
1 *621:A 0.000264427
2 *619:X 0.000264427
3 *621:A *550:A 5.52238e-05
4 *621:A *620:B 1.88048e-05
5 *621:A *94:12 2.15363e-05
6 *621:A *143:33 4.88637e-05
7 *621:A *159:31 0.000141375
8 *621:A *176:10 3.34672e-05
9 *657:SET_B *621:A 0.000101545
10 *49:20 *621:A 0
*RES
1 *619:X *621:A 33.3321 
*END

*D_NET *52 0.000866152
*CONN
*I *629:B I *D sky130_fd_sc_hd__or2_1
*I *630:A I *D sky130_fd_sc_hd__nand2_1
*I *621:B I *D sky130_fd_sc_hd__nand2_1
*I *620:Y O *D sky130_fd_sc_hd__nand2_1
*CAP
1 *629:B 2.31848e-05
2 *630:A 0.000124356
3 *621:B 2.83656e-05
4 *620:Y 2.34939e-05
5 *52:6 0.0001994
6 *621:B *620:A 0
7 *621:B *628:A 5.42898e-05
8 *621:B *94:8 0
9 *629:B *536:B 2.95726e-05
10 *629:B *159:31 9.90431e-05
11 *630:A *630:B 0
12 *630:A *159:31 9.69119e-06
13 *630:A *159:44 6.53137e-05
14 *52:6 *620:A 5.71472e-05
15 *52:6 *628:A 4.5919e-05
16 *52:6 *159:31 8.57023e-05
17 *3:23 *630:A 2.06725e-05
18 *49:20 *630:A 0
*RES
1 *620:Y *52:6 10.6571 
2 *52:6 *621:B 10.2375 
3 *52:6 *630:A 20.7821 
4 *52:6 *629:B 10.2464 
*END

*D_NET *53 0.000605576
*CONN
*I *628:A I *D sky130_fd_sc_hd__nor2_1
*I *621:Y O *D sky130_fd_sc_hd__nand2_1
*CAP
1 *628:A 0.000163412
2 *621:Y 0.000163412
3 *628:A *536:B 9.90431e-05
4 *628:A *620:A 1.74352e-05
5 *628:A *628:B 6.20656e-05
6 *621:B *628:A 5.42898e-05
7 *52:6 *628:A 4.5919e-05
*RES
1 *621:Y *628:A 22.4393 
*END

*D_NET *54 0.001336
*CONN
*I *627:A I *D sky130_fd_sc_hd__nand3_4
*I *622:Y O *D sky130_fd_sc_hd__nand3_1
*CAP
1 *627:A 0.000229368
2 *622:Y 0.000229368
3 *627:A *590:B1 2.89114e-05
4 *627:A *592:A 0.000126439
5 *627:A *593:A 9.41642e-05
6 *627:A *89:12 0.00014285
7 *627:A *131:8 0.000245383
8 *38:10 *627:A 0.000126439
9 *45:10 *627:A 0.000113084
*RES
1 *622:Y *627:A 34.1536 
*END

*D_NET *55 0.000544974
*CONN
*I *627:B I *D sky130_fd_sc_hd__nand3_4
*I *623:Y O *D sky130_fd_sc_hd__inv_2
*CAP
1 *627:B 0.00012737
2 *623:Y 0.00012737
3 *627:B *592:B 0.00010096
4 *627:B *59:10 1.41029e-05
5 *627:B *89:12 0.000125724
6 *627:B *90:92 4.94455e-05
*RES
1 *623:Y *627:B 30.4929 
*END

*D_NET *56 0.0012409
*CONN
*I *626:A I *D sky130_fd_sc_hd__nand2_1
*I *624:Y O *D sky130_fd_sc_hd__nand2_1
*CAP
1 *626:A 0.000367128
2 *624:Y 0.000367128
3 *626:A *573:A 7.37949e-05
4 *626:A *607:A 5.49544e-05
5 *626:A *610:B 0.000271904
6 *626:A *626:B 0
7 *626:A *101:33 4.33899e-05
8 *626:A *117:14 1.24368e-05
9 *626:A *136:30 5.01689e-05
*RES
1 *624:Y *626:A 34.1357 
*END

*D_NET *57 0.000516685
*CONN
*I *626:B I *D sky130_fd_sc_hd__nand2_1
*I *625:Y O *D sky130_fd_sc_hd__nand3_1
*CAP
1 *626:B 0.000141168
2 *625:Y 0.000141168
3 *626:B *607:A 1.89507e-06
4 *626:B *625:C 9.99853e-05
5 *626:B *101:33 0.000132469
6 *626:A *626:B 0
*RES
1 *625:Y *626:B 30.1893 
*END

*D_NET *58 0.00115922
*CONN
*I *627:C I *D sky130_fd_sc_hd__nand3_4
*I *626:Y O *D sky130_fd_sc_hd__nand2_1
*CAP
1 *627:C 0.000261109
2 *626:Y 0.000261109
3 *627:C *573:A 9.71197e-05
4 *627:C *573:B 0.000126509
5 *627:C *590:A1 2.97489e-05
6 *627:C *590:A2 0.000230475
7 *627:C *686:A 9.11365e-06
8 *627:C *115:16 0
9 *604:B1 *627:C 0.000144038
*RES
1 *626:Y *627:C 34.0821 
*END

*D_NET *59 0.0138445
*CONN
*I *654:B I *D sky130_fd_sc_hd__nor2_1
*I *656:B I *D sky130_fd_sc_hd__nor2_1
*I *641:B I *D sky130_fd_sc_hd__nor2_1
*I *650:B I *D sky130_fd_sc_hd__nor2_1
*I *645:B I *D sky130_fd_sc_hd__nor2_1
*I *632:B I *D sky130_fd_sc_hd__nor2_1
*I *628:B I *D sky130_fd_sc_hd__nor2_1
*I *637:B I *D sky130_fd_sc_hd__nor2_1
*I *627:Y O *D sky130_fd_sc_hd__nand3_4
*CAP
1 *654:B 0.000194403
2 *656:B 0
3 *641:B 1.95116e-05
4 *650:B 0
5 *645:B 0
6 *632:B 0
7 *628:B 0.0003843
8 *637:B 0.000629605
9 *627:Y 0.000906892
10 *59:102 0.000487421
11 *59:89 0.000406564
12 *59:55 0.000692101
13 *59:47 0.00125132
14 *59:35 0.00131729
15 *59:14 0.00116459
16 *59:10 0.00116213
17 *628:B *620:A 0
18 *637:B *635:B 0
19 *637:B *637:A 5.65955e-05
20 *637:B *639:A 6.14153e-05
21 *637:B *643:C 0.00020737
22 *637:B *63:8 0
23 *637:B *82:12 0.000157635
24 *637:B *122:8 2.07158e-05
25 *637:B *178:34 5.49544e-05
26 *637:B *178:45 0.00034801
27 *641:B *641:A 5.46383e-06
28 *654:B *539:A 0.000148837
29 *654:B *656:A 5.54817e-06
30 *59:10 *537:B 0.000116524
31 *59:10 *551:A 3.36121e-05
32 *59:10 *580:B 1.94945e-05
33 *59:10 *581:B 9.49854e-05
34 *59:10 *594:B 0
35 *59:10 *617:B 0
36 *59:10 *618:A1 0
37 *59:10 *640:A 7.17807e-05
38 *59:10 *643:C 8.76541e-05
39 *59:10 *686:A 7.8327e-05
40 *59:10 *687:A 0.00027725
41 *59:10 *87:16 8.16036e-05
42 *59:10 *89:12 1.02504e-05
43 *59:10 *90:92 0
44 *59:10 *98:14 0
45 *59:10 *124:10 0
46 *59:10 *124:16 0
47 *59:10 *131:25 0
48 *59:10 *143:16 6.07232e-05
49 *59:10 *148:18 0
50 *59:10 *179:14 1.03182e-05
51 *59:14 *640:B 0.000139337
52 *59:14 *641:A 7.22686e-05
53 *59:14 *148:18 1.12713e-05
54 *59:35 *643:A 0.000150917
55 *59:35 *643:C 0.000366634
56 *59:35 *650:A 0.000170032
57 *59:35 *71:21 2.19736e-05
58 *59:35 *180:12 1.70335e-05
59 *59:47 *707:A 8.89385e-05
60 *59:47 *157:14 0.000242632
61 *59:55 *643:A 4.97967e-05
62 *59:55 *707:A 0.000166135
63 *59:55 *159:44 2.80728e-05
64 *59:89 *641:A 4.63305e-05
65 *59:89 *148:18 2.97489e-05
66 *59:102 *656:A 7.48644e-05
67 *59:102 *148:18 5.6685e-05
68 *627:B *59:10 1.41029e-05
69 *628:A *628:B 6.20656e-05
70 *658:D *628:B 4.0342e-06
71 *659:D *59:55 7.25873e-06
72 *661:D *59:102 5.37198e-05
73 *663:D *59:35 0.000175512
74 *663:D *59:47 2.59355e-05
75 *3:23 *59:47 0.000175519
76 *3:23 *59:55 0.000363992
77 *17:96 *654:B 2.80706e-05
78 *17:96 *59:102 4.68532e-05
79 *49:20 *628:B 0.000529617
*RES
1 *627:Y *59:10 38.4607 
2 *59:10 *59:14 7.5 
3 *59:14 *637:B 26.925 
4 *59:14 *59:35 14.6964 
5 *59:35 *59:47 21.8214 
6 *59:47 *59:55 12.1964 
7 *59:55 *628:B 27.3 
8 *59:55 *632:B 9.3 
9 *59:47 *645:B 13.8 
10 *59:35 *650:B 9.3 
11 *59:10 *59:89 1.76786 
12 *59:89 *641:B 9.72857 
13 *59:89 *59:102 10.2679 
14 *59:102 *656:B 13.8 
15 *59:102 *654:B 18.1393 
*END

*D_NET *60 0.00284854
*CONN
*I *631:A I *D sky130_fd_sc_hd__nand2_1
*I *635:A I *D sky130_fd_sc_hd__nand2_1
*I *639:B I *D sky130_fd_sc_hd__or2_1
*I *634:B I *D sky130_fd_sc_hd__or2_1
*I *629:X O *D sky130_fd_sc_hd__or2_1
*CAP
1 *631:A 0.000198249
2 *635:A 0
3 *639:B 5.66514e-05
4 *634:B 0
5 *629:X 8.69999e-05
6 *60:18 0.000433491
7 *60:12 0.00062005
8 *60:8 0.000528459
9 *631:A *672:CLK 0.000328981
10 *631:A *672:D 1.21258e-05
11 *631:A *177:14 0
12 *639:B *638:A 0.000143505
13 *60:8 *672:CLK 0.000148743
14 *60:8 *177:14 0
15 *60:18 *634:A 5.47001e-05
16 *60:18 *635:B 1.22075e-05
17 *60:18 *636:A 2.976e-05
18 *60:18 *636:B 0.00014077
19 *60:18 *638:A 5.3845e-05
*RES
1 *629:X *60:8 15.7464 
2 *60:8 *60:12 8.32143 
3 *60:12 *60:18 5.39286 
4 *60:18 *634:B 9.3 
5 *60:18 *639:B 10.6571 
6 *60:12 *635:A 9.3 
7 *60:8 *631:A 18.425 
*END

*D_NET *61 0.000338287
*CONN
*I *631:B I *D sky130_fd_sc_hd__nand2_1
*I *630:Y O *D sky130_fd_sc_hd__nand2_1
*CAP
1 *631:B 5.82929e-05
2 *630:Y 5.82929e-05
3 *631:B *159:44 7.39178e-05
4 *3:23 *631:B 0.000147784
*RES
1 *630:Y *631:B 29.5464 
*END

*D_NET *62 0.000790365
*CONN
*I *632:A I *D sky130_fd_sc_hd__nor2_1
*I *631:Y O *D sky130_fd_sc_hd__nand2_1
*CAP
1 *632:A 0.000213498
2 *631:Y 0.000213498
3 *632:A *672:CLK 5.40148e-05
4 *672:RESET_B *632:A 0.000181415
5 *49:20 *632:A 0.000127939
*RES
1 *631:Y *632:A 31.4214 
*END

*D_NET *63 0.00104082
*CONN
*I *635:B I *D sky130_fd_sc_hd__nand2_1
*I *634:A I *D sky130_fd_sc_hd__or2_1
*I *633:Y O *D sky130_fd_sc_hd__inv_2
*CAP
1 *635:B 0.000222016
2 *634:A 1.24608e-05
3 *633:Y 9.26267e-05
4 *63:8 0.000327103
5 *634:A *638:A 5.49489e-05
6 *635:B *636:A 3.08664e-05
7 *635:B *636:B 5.81713e-05
8 *635:B *637:A 9.99853e-05
9 *635:B *638:A 7.57312e-05
10 *63:8 *637:A 0
11 *637:B *635:B 0
12 *637:B *63:8 0
13 *60:18 *634:A 5.47001e-05
14 *60:18 *635:B 1.22075e-05
*RES
1 *633:Y *63:8 15.1393 
2 *63:8 *634:A 14.3357 
3 *63:8 *635:B 18.5679 
*END

*D_NET *64 0.00100596
*CONN
*I *638:A I *D sky130_fd_sc_hd__nand2_1
*I *636:A I *D sky130_fd_sc_hd__nand2_1
*I *634:X O *D sky130_fd_sc_hd__or2_1
*CAP
1 *638:A 0.000177998
2 *636:A 1.16339e-05
3 *634:X 0
4 *64:4 0.000189632
5 *638:A *639:A 0.000184503
6 *638:A *68:10 5.35386e-05
7 *634:A *638:A 5.49489e-05
8 *635:B *636:A 3.08664e-05
9 *635:B *638:A 7.57312e-05
10 *639:B *638:A 0.000143505
11 *60:18 *636:A 2.976e-05
12 *60:18 *638:A 5.3845e-05
*RES
1 *634:X *64:4 9.3 
2 *64:4 *636:A 9.83571 
3 *64:4 *638:A 14.7643 
*END

*D_NET *65 0.000327682
*CONN
*I *636:B I *D sky130_fd_sc_hd__nand2_1
*I *635:Y O *D sky130_fd_sc_hd__nand2_1
*CAP
1 *636:B 5.96917e-05
2 *635:Y 5.96917e-05
3 *636:B *637:A 9.35794e-06
4 *635:B *636:B 5.81713e-05
5 *60:18 *636:B 0.00014077
*RES
1 *635:Y *636:B 21.0643 
*END

*D_NET *66 0.0010536
*CONN
*I *637:A I *D sky130_fd_sc_hd__nor2_1
*I *636:Y O *D sky130_fd_sc_hd__nand2_1
*CAP
1 *637:A 0.000297915
2 *636:Y 0.000297915
3 *637:A *82:12 5.49544e-05
4 *637:A *136:30 0.000236876
5 *635:B *637:A 9.99853e-05
6 *636:B *637:A 9.35794e-06
7 *637:B *637:A 5.65955e-05
8 *63:8 *637:A 0
*RES
1 *636:Y *637:A 33.3143 
*END

*D_NET *67 0.00052079
*CONN
*I *640:A I *D sky130_fd_sc_hd__nand2_1
*I *638:Y O *D sky130_fd_sc_hd__nand2_1
*CAP
1 *640:A 0.000208767
2 *638:Y 0.000208767
3 *640:A *638:B 1.84776e-05
4 *640:A *639:A 2.51343e-06
5 *640:A *97:12 1.0484e-05
6 *59:10 *640:A 7.17807e-05
*RES
1 *638:Y *640:A 30.9036 
*END

*D_NET *68 0.0016062
*CONN
*I *642:B I *D sky130_fd_sc_hd__nand2b_1
*I *640:B I *D sky130_fd_sc_hd__nand2_1
*I *639:X O *D sky130_fd_sc_hd__or2_1
*CAP
1 *642:B 0.000265066
2 *640:B 0.00011096
3 *639:X 0.00021849
4 *68:10 0.000594517
5 *640:B *148:18 0.000163711
6 *642:B *643:A 4.51556e-05
7 *642:B *644:B 6.26774e-06
8 *642:B *180:12 9.15842e-06
9 *638:A *68:10 5.35386e-05
10 *59:14 *640:B 0.000139337
*RES
1 *639:X *68:10 17.1036 
2 *68:10 *640:B 16.8 
3 *68:10 *642:B 18.9116 
*END

*D_NET *69 0.000491911
*CONN
*I *641:A I *D sky130_fd_sc_hd__nor2_1
*I *640:Y O *D sky130_fd_sc_hd__nand2_1
*CAP
1 *641:A 7.12371e-05
2 *640:Y 7.12371e-05
3 *641:A *148:18 0.000225374
4 *641:B *641:A 5.46383e-06
5 *59:14 *641:A 7.22686e-05
6 *59:89 *641:A 4.63305e-05
*RES
1 *640:Y *641:A 21.2071 
*END

*D_NET *70 0.000210716
*CONN
*I *644:A I *D sky130_fd_sc_hd__nand2_1
*I *642:Y O *D sky130_fd_sc_hd__nand2b_1
*CAP
1 *644:A 8.96735e-05
2 *642:Y 8.96735e-05
3 *644:A *644:B 2.65181e-05
4 *644:A *645:A 4.85049e-06
*RES
1 *642:Y *644:A 20.3857 
*END

*D_NET *71 0.00185601
*CONN
*I *648:A I *D sky130_fd_sc_hd__nand2_1
*I *647:B I *D sky130_fd_sc_hd__nor2_1
*I *644:B I *D sky130_fd_sc_hd__nand2_1
*I *643:Y O *D sky130_fd_sc_hd__nand3_1
*CAP
1 *648:A 6.83304e-05
2 *647:B 0
3 *644:B 0.000270949
4 *643:Y 0
5 *71:21 0.000318697
6 *71:4 0.000521315
7 *644:B *180:21 9.84729e-05
8 *648:A *647:A 5.22666e-05
9 *648:A *74:14 7.62323e-05
10 *71:21 *538:B 9.67754e-05
11 *71:21 *643:C 0.000224276
12 *71:21 *650:A 9.25014e-06
13 *71:21 *74:14 2.29112e-05
14 *71:21 *180:21 4.17702e-05
15 *642:B *644:B 6.26774e-06
16 *644:A *644:B 2.65181e-05
17 *59:35 *71:21 2.19736e-05
*RES
1 *643:Y *71:4 9.3 
2 *71:4 *644:B 13.0321 
3 *71:4 *71:21 13.8214 
4 *71:21 *647:B 9.3 
5 *71:21 *648:A 11.5143 
*END

*D_NET *72 0.00184314
*CONN
*I *645:A I *D sky130_fd_sc_hd__nor2_1
*I *644:Y O *D sky130_fd_sc_hd__nand2_1
*CAP
1 *645:A 0.00083506
2 *644:Y 0.00083506
3 *645:A *177:14 1.97361e-05
4 *644:A *645:A 4.85049e-06
5 *659:RESET_B *645:A 2.34204e-05
6 *3:23 *645:A 0.00012501
*RES
1 *644:Y *645:A 37.9929 
*END

*D_NET *73 0.000830151
*CONN
*I *648:B I *D sky130_fd_sc_hd__nand2_1
*I *647:A I *D sky130_fd_sc_hd__nor2_1
*I *646:Y O *D sky130_fd_sc_hd__inv_2
*CAP
1 *648:B 0
2 *647:A 9.48346e-05
3 *646:Y 0.000236787
4 *73:12 0.000331621
5 *647:A *649:B_N 1.16543e-05
6 *73:12 *649:B_N 2.11336e-05
7 *73:12 *84:12 7.5802e-05
8 *73:12 *85:12 6.05161e-06
9 *648:A *647:A 5.22666e-05
*RES
1 *646:Y *73:12 22.8357 
2 *73:12 *647:A 11.5143 
3 *73:12 *648:B 9.3 
*END

*D_NET *74 0.00280936
*CONN
*I *652:A I *D sky130_fd_sc_hd__nand2_1
*I *651:B I *D sky130_fd_sc_hd__or2_1
*I *649:A I *D sky130_fd_sc_hd__or2b_1
*I *647:Y O *D sky130_fd_sc_hd__nor2_1
*CAP
1 *652:A 3.08765e-05
2 *651:B 0.000247589
3 *649:A 0
4 *647:Y 0.000222134
5 *74:25 0.000607475
6 *74:14 0.000551145
7 *651:B *654:A 0.000224583
8 *651:B *143:114 0
9 *74:14 *538:B 2.11048e-05
10 *74:14 *649:B_N 2.09722e-05
11 *74:25 *538:A 7.88091e-05
12 *74:25 *538:B 3.32737e-05
13 *74:25 *652:B 3.49456e-06
14 *74:25 *84:12 9.84673e-05
15 *648:A *74:14 7.62323e-05
16 *17:37 *651:B 0.000487467
17 *17:96 *651:B 8.28293e-05
18 *71:21 *74:14 2.29112e-05
*RES
1 *647:Y *74:14 21.6393 
2 *74:14 *649:A 9.3 
3 *74:14 *74:25 6.21429 
4 *74:25 *651:B 24.8893 
5 *74:25 *652:A 9.83571 
*END

*D_NET *75 0.000436083
*CONN
*I *649:B_N I *D sky130_fd_sc_hd__or2b_1
*I *648:Y O *D sky130_fd_sc_hd__nand2_1
*CAP
1 *649:B_N 0.000179706
2 *648:Y 0.000179706
3 *649:B_N *84:12 2.29112e-05
4 *647:A *649:B_N 1.16543e-05
5 *73:12 *649:B_N 2.11336e-05
6 *74:14 *649:B_N 2.09722e-05
*RES
1 *648:Y *649:B_N 30.4929 
*END

*D_NET *76 0.000573184
*CONN
*I *650:A I *D sky130_fd_sc_hd__nor2_1
*I *649:X O *D sky130_fd_sc_hd__or2b_1
*CAP
1 *650:A 0.000196951
2 *649:X 0.000196951
3 *59:35 *650:A 0.000170032
4 *71:21 *650:A 9.25014e-06
*RES
1 *649:X *650:A 31.975 
*END

*D_NET *77 0.000126884
*CONN
*I *653:A I *D sky130_fd_sc_hd__nand2_1
*I *651:X O *D sky130_fd_sc_hd__or2_1
*CAP
1 *653:A 6.29488e-06
2 *651:X 6.29488e-06
3 *653:A *653:B 5.71472e-05
4 *17:37 *653:A 5.71472e-05
*RES
1 *651:X *653:A 19.1357 
*END

*D_NET *78 0.00296844
*CONN
*I *653:B I *D sky130_fd_sc_hd__nand2_1
*I *655:B I *D sky130_fd_sc_hd__xor2_1
*I *652:Y O *D sky130_fd_sc_hd__nand2_1
*CAP
1 *653:B 0.000286243
2 *655:B 0.00038038
3 *652:Y 0.000200335
4 *78:8 0.000866958
5 *653:B *143:114 0.000134788
6 *655:B *539:A 6.94441e-06
7 *655:B *656:A 9.84673e-05
8 *655:B *143:95 0.00011307
9 *655:B *143:101 0.000195126
10 *655:B *143:114 5.533e-05
11 *78:8 *652:B 9.84673e-05
12 *78:8 *182:10 0.000135028
13 *653:A *653:B 5.71472e-05
14 *17:37 *653:B 0.000340154
*RES
1 *652:Y *78:8 16.3893 
2 *78:8 *655:B 21.8714 
3 *78:8 *653:B 20.4071 
*END

*D_NET *79 0.00128207
*CONN
*I *654:A I *D sky130_fd_sc_hd__nor2_1
*I *653:Y O *D sky130_fd_sc_hd__nand2_1
*CAP
1 *654:A 0.00036978
2 *653:Y 0.00036978
3 *654:A *539:A 3.2923e-05
4 *654:A *143:101 1.00887e-05
5 *654:A *143:114 0.000112635
6 *651:B *654:A 0.000224583
7 *17:37 *654:A 0.000162282
*RES
1 *653:Y *654:A 33.475 
*END

*D_NET *80 0.000928924
*CONN
*I *656:A I *D sky130_fd_sc_hd__nor2_1
*I *655:X O *D sky130_fd_sc_hd__xor2_1
*CAP
1 *656:A 0.000236079
2 *655:X 0.000236079
3 *656:A *539:A 5.54817e-06
4 *654:B *656:A 5.54817e-06
5 *655:B *656:A 9.84673e-05
6 *661:D *656:A 0.000272338
7 *59:102 *656:A 7.48644e-05
*RES
1 *655:X *656:A 33.4571 
*END

*D_NET *81 0.00191253
*CONN
*I *537:A I *D sky130_fd_sc_hd__nand2_1
*I *535:Y O *D sky130_fd_sc_hd__nor2_1
*CAP
1 *537:A 0.000260097
2 *535:Y 0.000260097
3 *537:A *537:B 7.45235e-05
4 *537:A *581:B 0.000560628
5 *537:A *83:10 5.30637e-06
6 *537:A *98:14 0.000127446
7 *537:A *143:16 5.52238e-05
8 *17:108 *537:A 0.000569207
*RES
1 *535:Y *537:A 36.7786 
*END

*D_NET *82 0.00408501
*CONN
*I *580:A I *D sky130_fd_sc_hd__nor2_1
*I *537:B I *D sky130_fd_sc_hd__nand2_1
*I *536:Y O *D sky130_fd_sc_hd__nand2_1
*CAP
1 *580:A 0
2 *537:B 0.000341558
3 *536:Y 0.000790429
4 *82:12 0.00113199
5 *537:B *580:B 8.6229e-06
6 *537:B *581:B 0.000315165
7 *537:B *124:10 0.000139907
8 *537:B *148:18 0
9 *537:B *179:14 3.34366e-05
10 *82:12 *535:A 3.08382e-06
11 *82:12 *535:B 0.000167597
12 *82:12 *536:A 5.65955e-05
13 *82:12 *579:A 7.49387e-06
14 *82:12 *580:B 2.59355e-05
15 *82:12 *94:8 0.000141729
16 *82:12 *177:14 5.49489e-05
17 *82:12 *178:34 5.49544e-05
18 *82:12 *178:45 0.000378369
19 *82:12 *179:14 2.9561e-05
20 *537:A *537:B 7.45235e-05
21 *637:A *82:12 5.49544e-05
22 *637:B *82:12 0.000157635
23 *59:10 *537:B 0.000116524
*RES
1 *536:Y *82:12 23.4429 
2 *82:12 *537:B 26.1214 
3 *82:12 *580:A 9.3 
*END

*D_NET *83 0.000908604
*CONN
*I *541:A I *D sky130_fd_sc_hd__nor2_1
*I *577:A1 I *D sky130_fd_sc_hd__o21bai_1
*I *537:Y O *D sky130_fd_sc_hd__nand2_1
*CAP
1 *541:A 0
2 *577:A1 0.000142097
3 *537:Y 0.000221793
4 *83:10 0.000363889
5 *577:A1 *583:B 0
6 *577:A1 *586:B 0
7 *577:A1 *129:12 0.000175519
8 *83:10 *86:12 0
9 *537:A *83:10 5.30637e-06
*RES
1 *537:Y *83:10 16.8 
2 *83:10 *577:A1 16.6571 
3 *83:10 *541:A 13.8 
*END

*D_NET *84 0.0015715
*CONN
*I *540:A I *D sky130_fd_sc_hd__nand2_1
*I *552:A I *D sky130_fd_sc_hd__nand3_1
*I *538:Y O *D sky130_fd_sc_hd__nor2_1
*CAP
1 *540:A 0
2 *552:A 9.16537e-05
3 *538:Y 0.000393087
4 *84:12 0.000484741
5 *552:A *552:B 0.000111821
6 *552:A *97:12 0.000113695
7 *84:12 *551:A 1.00887e-05
8 *84:12 *85:12 0.000169236
9 *649:B_N *84:12 2.29112e-05
10 *73:12 *84:12 7.5802e-05
11 *74:25 *84:12 9.84673e-05
*RES
1 *538:Y *84:12 26.05 
2 *84:12 *552:A 11.925 
3 *84:12 *540:A 9.3 
*END

*D_NET *85 0.00199173
*CONN
*I *552:B I *D sky130_fd_sc_hd__nand3_1
*I *540:B I *D sky130_fd_sc_hd__nand2_1
*I *539:Y O *D sky130_fd_sc_hd__nor2_1
*CAP
1 *552:B 0.000177865
2 *540:B 0
3 *539:Y 0.000579723
4 *85:12 0.000757588
5 *552:B *86:10 2.11336e-05
6 *552:B *97:12 2.25786e-05
7 *85:12 *539:A 3.11088e-05
8 *85:12 *148:18 8.52458e-05
9 *552:A *552:B 0.000111821
10 *665:D *85:12 2.93776e-05
11 *73:12 *85:12 6.05161e-06
12 *84:12 *85:12 0.000169236
*RES
1 *539:Y *85:12 27.3179 
2 *85:12 *540:B 9.3 
3 *85:12 *552:B 13.1571 
*END

*D_NET *86 0.00275874
*CONN
*I *581:A I *D sky130_fd_sc_hd__nor2_1
*I *541:B I *D sky130_fd_sc_hd__nor2_1
*I *577:A2 I *D sky130_fd_sc_hd__o21bai_1
*I *540:Y O *D sky130_fd_sc_hd__nand2_1
*CAP
1 *581:A 0
2 *541:B 7.62051e-05
3 *577:A2 0.000166482
4 *540:Y 0.000408657
5 *86:12 0.00041177
6 *86:10 0.00057774
7 *541:B *586:B 5.52302e-05
8 *541:B *617:B 5.33005e-05
9 *541:B *87:6 2.14757e-05
10 *541:B *87:16 4.58194e-05
11 *541:B *125:8 4.22602e-05
12 *541:B *129:12 5.71472e-05
13 *577:A2 *577:B1_N 1.04232e-05
14 *577:A2 *578:A 1.91004e-05
15 *577:A2 *583:B 0.000173804
16 *577:A2 *618:A2 2.89016e-05
17 *577:A2 *119:12 0.000122436
18 *577:A2 *148:18 5.9483e-05
19 *86:10 *148:18 1.09026e-05
20 *86:12 *583:B 3.17148e-05
21 *86:12 *148:18 5.90322e-05
22 *552:B *86:10 2.11336e-05
23 *661:D *86:10 0
24 *17:96 *86:10 0.00010288
25 *17:108 *86:10 0.000202842
26 *83:10 *86:12 0
*RES
1 *540:Y *86:10 20.7643 
2 *86:10 *86:12 2.55357 
3 *86:12 *577:A2 18.3714 
4 *86:12 *541:B 15.9964 
5 *86:10 *581:A 13.8 
*END

*D_NET *87 0.0045098
*CONN
*I *586:B I *D sky130_fd_sc_hd__nor2_1
*I *616:C1 I *D sky130_fd_sc_hd__o211a_1
*I *547:A I *D sky130_fd_sc_hd__nand2_1
*I *541:Y O *D sky130_fd_sc_hd__nor2_1
*CAP
1 *586:B 5.8301e-05
2 *616:C1 0
3 *547:A 0.000339335
4 *541:Y 5.89633e-05
5 *87:16 0.00158106
6 *87:6 0.00135899
7 *547:A *616:B1 5.49544e-05
8 *547:A *92:24 0.000117784
9 *586:B *583:B 7.90803e-05
10 *586:B *125:8 5.52302e-05
11 *87:6 *129:12 5.71472e-05
12 *87:16 *616:B1 0.00021025
13 *87:16 *617:B 0.000134441
14 *87:16 *124:10 0
15 *87:16 *143:16 1.34703e-05
16 *541:B *586:B 5.52302e-05
17 *541:B *87:6 2.14757e-05
18 *541:B *87:16 4.58194e-05
19 *577:A1 *586:B 0
20 *608:A *547:A 0.000186662
21 *59:10 *87:16 8.16036e-05
*RES
1 *541:Y *87:6 10.2464 
2 *87:6 *87:16 28.4464 
3 *87:16 *547:A 24.9071 
4 *87:16 *616:C1 9.3 
5 *87:6 *586:B 19.8714 
*END

*D_NET *88 0.00813998
*CONN
*I *543:B I *D sky130_fd_sc_hd__nor2_1
*I *591:B1 I *D sky130_fd_sc_hd__o311a_1
*I *598:A I *D sky130_fd_sc_hd__nand2_1
*I *606:B1 I *D sky130_fd_sc_hd__o21a_1
*I *570:B I *D sky130_fd_sc_hd__nor2_1
*I *558:A I *D sky130_fd_sc_hd__nor2_1
*I *542:Y O *D sky130_fd_sc_hd__inv_6
*CAP
1 *543:B 0.000241187
2 *591:B1 0.000199813
3 *598:A 1.84972e-05
4 *606:B1 5.46053e-05
5 *570:B 0.000148194
6 *558:A 0
7 *542:Y 0
8 *88:68 0.000819433
9 *88:49 0.000836605
10 *88:16 0.00100727
11 *88:6 0.0010726
12 *88:4 0.000598588
13 *543:B *560:A1 2.23101e-05
14 *543:B *560:B1 0.000197385
15 *543:B *572:A 7.79729e-05
16 *543:B *89:12 1.00887e-05
17 *543:B *90:92 1.42331e-05
18 *543:B *101:33 0.00011632
19 *543:B *144:87 0.000131821
20 *570:B *558:B 5.02492e-05
21 *570:B *570:A 5.49489e-05
22 *570:B *712:A 7.44262e-05
23 *570:B *114:8 6.05161e-06
24 *591:B1 *560:B1 7.74068e-05
25 *591:B1 *572:A 2.09722e-05
26 *591:B1 *591:C1 5.33005e-05
27 *591:B1 *603:A1 5.33005e-05
28 *591:B1 *144:69 6.50382e-05
29 *598:A *144:10 3.41517e-06
30 *598:A *144:69 3.49456e-06
31 *88:6 *606:A2 0.000143375
32 *88:16 *558:B 0
33 *88:16 *570:A 0
34 *88:49 *606:A2 0.000301633
35 *88:49 *105:8 9.58126e-05
36 *88:49 *144:6 5.65955e-05
37 *88:49 *144:10 4.48647e-05
38 *88:49 *144:69 2.59355e-05
39 *88:68 *686:A 7.22772e-05
40 *88:68 *90:10 4.10245e-05
41 *88:68 *105:8 1.24368e-05
42 *88:68 *144:69 0.000330406
43 *603:A2 *591:B1 1.87331e-05
44 *603:A2 *88:68 0.00035408
45 *608:A *88:16 0.000179656
46 *666:D *88:16 1.58213e-06
47 *26:10 *88:68 4.79864e-05
48 *44:10 *88:68 4.58402e-05
49 *46:10 *88:16 0.000338221
*RES
1 *542:Y *88:4 9.3 
2 *88:4 *88:6 2.17857 
3 *88:6 *88:16 25.0893 
4 *88:16 *558:A 9.3 
5 *88:16 *570:B 12.7464 
6 *88:6 *606:B1 10.3357 
7 *88:4 *88:49 16.4286 
8 *88:49 *598:A 9.72857 
9 *88:49 *88:68 21.6607 
10 *88:68 *591:B1 17.8714 
11 *88:68 *543:B 20.05 
*END

*D_NET *89 0.00281059
*CONN
*I *588:A I *D sky130_fd_sc_hd__and2_1
*I *617:A I *D sky130_fd_sc_hd__nand2_1
*I *545:A I *D sky130_fd_sc_hd__nand2_1
*I *543:Y O *D sky130_fd_sc_hd__nor2_1
*CAP
1 *588:A 0
2 *617:A 0.000311402
3 *545:A 0
4 *543:Y 0.000159913
5 *89:16 0.000642037
6 *89:12 0.000490548
7 *617:A *546:A 2.11419e-05
8 *617:A *583:B 3.0305e-05
9 *617:A *617:B 7.82542e-06
10 *617:A *618:A1 0.000139907
11 *617:A *124:16 4.45881e-05
12 *89:12 *571:B 0.000147913
13 *89:12 *611:B 7.32272e-05
14 *89:12 *686:A 1.18451e-05
15 *89:12 *90:92 0
16 *89:12 *131:8 3.68898e-05
17 *89:12 *144:87 1.00887e-05
18 *89:16 *588:B 1.52978e-05
19 *89:16 *592:A 0
20 *89:16 *90:92 0
21 *89:16 *124:16 5.80706e-06
22 *89:16 *127:10 0
23 *543:B *89:12 1.00887e-05
24 *595:A *89:16 0
25 *618:B1 *617:A 1.69108e-05
26 *627:A *89:12 0.00014285
27 *627:B *89:12 0.000125724
28 *45:10 *89:12 0.000356028
29 *59:10 *89:12 1.02504e-05
*RES
1 *543:Y *89:12 24.2643 
2 *89:12 *89:16 9.78571 
3 *89:16 *545:A 13.8 
4 *89:16 *617:A 18.7643 
5 *89:12 *588:A 9.3 
*END

*D_NET *90 0.0122141
*CONN
*I *618:A1 I *D sky130_fd_sc_hd__a211oi_1
*I *545:B I *D sky130_fd_sc_hd__nand2_1
*I *591:C1 I *D sky130_fd_sc_hd__o311a_1
*I *570:A I *D sky130_fd_sc_hd__nor2_1
*I *609:A2 I *D sky130_fd_sc_hd__a21oi_1
*I *598:B I *D sky130_fd_sc_hd__nand2_1
*I *564:B I *D sky130_fd_sc_hd__nor2_1
*I *606:A2 I *D sky130_fd_sc_hd__o21a_1
*I *544:X O *D sky130_fd_sc_hd__clkbuf_2
*CAP
1 *618:A1 0.000184995
2 *545:B 5.89006e-05
3 *591:C1 0.000110982
4 *570:A 0.000574423
5 *609:A2 0
6 *598:B 0
7 *564:B 0.000164823
8 *606:A2 0.000222712
9 *544:X 0.000173595
10 *90:92 0.000794925
11 *90:79 0.000662012
12 *90:49 0.00134136
13 *90:16 0.000496029
14 *90:12 0.000224262
15 *90:10 0.0013693
16 *90:6 0.000660188
17 *545:B *583:A 4.36962e-05
18 *545:B *92:24 1.39841e-05
19 *564:B *564:A 0.000269349
20 *564:B *567:A 3.30352e-05
21 *564:B *569:A 0.000194894
22 *570:A *558:B 0.000342005
23 *570:A *571:A 0.000200406
24 *570:A *571:B 0
25 *570:A *609:A1 2.16833e-05
26 *570:A *610:A 0.000150265
27 *570:A *101:33 0
28 *591:C1 *560:A1 0.000220357
29 *591:C1 *592:C 5.85373e-05
30 *591:C1 *144:69 5.50052e-05
31 *606:A2 *564:A 6.84921e-05
32 *606:A2 *606:A1 0.000573531
33 *618:A1 *124:16 6.42338e-05
34 *618:A1 *148:18 2.89114e-05
35 *90:6 *142:8 3.11088e-05
36 *90:10 *686:A 0.000139853
37 *90:12 *105:14 1.73698e-05
38 *90:16 *105:14 8.8623e-05
39 *90:49 *609:A1 1.00332e-05
40 *90:49 *105:36 3.11713e-05
41 *90:49 *136:30 8.50349e-06
42 *90:49 *144:31 7.26699e-06
43 *90:49 *146:29 0.00047427
44 *90:49 *146:33 0.000197391
45 *90:92 *560:A1 0.00027539
46 *90:92 *588:B 0
47 *90:92 *592:C 0.000101486
48 *90:92 *594:B 0.000175526
49 *90:92 *124:16 1.76039e-05
50 *90:92 *131:25 0.000198698
51 *543:B *90:92 1.42331e-05
52 *570:B *570:A 5.49489e-05
53 *591:B1 *591:C1 5.33005e-05
54 *595:A *545:B 5.52238e-05
55 *607:B *90:12 0.000175418
56 *607:B *90:49 2.28343e-05
57 *608:A *570:A 0
58 *617:A *618:A1 0.000139907
59 *618:B1 *618:A1 1.15172e-05
60 *627:B *90:92 4.94455e-05
61 *26:10 *90:16 0
62 *44:10 *90:49 0
63 *59:10 *618:A1 0
64 *59:10 *90:92 0
65 *88:6 *606:A2 0.000143375
66 *88:16 *570:A 0
67 *88:49 *606:A2 0.000301633
68 *88:68 *90:10 4.10245e-05
69 *89:12 *90:92 0
70 *89:16 *90:92 0
*RES
1 *544:X *90:6 11.8893 
2 *90:6 *90:10 12.0179 
3 *90:10 *90:12 2.85714 
4 *90:12 *90:16 6.75 
5 *90:16 *606:A2 16.4071 
6 *90:16 *564:B 13.8536 
7 *90:12 *598:B 13.8 
8 *90:10 *90:49 10.3951 
9 *90:49 *609:A2 13.8 
10 *90:49 *570:A 25.55 
11 *90:6 *90:79 4.5 
12 *90:79 *591:C1 17.1929 
13 *90:79 *90:92 12.2679 
14 *90:92 *545:B 15.175 
15 *90:92 *618:A1 17.7464 
*END

*D_NET *91 0.000904695
*CONN
*I *546:A I *D sky130_fd_sc_hd__inv_2
*I *545:Y O *D sky130_fd_sc_hd__nand2_1
*CAP
1 *546:A 0.000410143
2 *545:Y 0.000410143
3 *546:A *584:A 2.11419e-05
4 *546:A *124:16 2.09826e-05
5 *546:A *129:12 2.11419e-05
6 *617:A *546:A 2.11419e-05
*RES
1 *545:Y *546:A 35.6692 
*END

*D_NET *92 0.00563464
*CONN
*I *578:B I *D sky130_fd_sc_hd__nand2_1
*I *583:C I *D sky130_fd_sc_hd__nand3_1
*I *547:B I *D sky130_fd_sc_hd__nand2_1
*I *614:A2 I *D sky130_fd_sc_hd__a21o_1
*I *546:Y O *D sky130_fd_sc_hd__inv_2
*CAP
1 *578:B 0.000261722
2 *583:C 0
3 *547:B 3.00977e-05
4 *614:A2 5.32397e-05
5 *546:Y 0
6 *92:24 0.00133263
7 *92:16 0.00154027
8 *92:4 0.000552705
9 *578:B *129:12 0
10 *614:A2 *615:A1 3.34295e-05
11 *614:A2 *93:8 0.00011891
12 *92:16 *583:B 8.732e-05
13 *92:16 *584:A 6.5919e-05
14 *92:16 *584:B 2.47771e-05
15 *92:24 *554:A 9.80904e-05
16 *92:24 *583:A 0.00022078
17 *92:24 *583:B 5.71472e-05
18 *92:24 *584:B 3.51717e-05
19 *92:24 *100:10 0.000399981
20 *545:B *92:24 1.39841e-05
21 *547:A *92:24 0.000117784
22 *595:A *92:16 6.3021e-05
23 *595:A *92:24 3.06868e-05
24 *608:A *614:A2 0
25 *608:A *92:24 0.000272371
26 *669:D *547:B 4.73656e-05
27 *669:D *614:A2 0.000177234
*RES
1 *546:Y *92:4 9.3 
2 *92:4 *92:16 13.6786 
3 *92:16 *92:24 27.6607 
4 *92:24 *614:A2 16.05 
5 *92:24 *547:B 14.5321 
6 *92:16 *583:C 9.3 
7 *92:4 *578:B 21.7107 
*END

*D_NET *93 0.00206996
*CONN
*I *555:A I *D sky130_fd_sc_hd__nor2_1
*I *615:A1 I *D sky130_fd_sc_hd__o21ai_1
*I *547:Y O *D sky130_fd_sc_hd__nand2_1
*CAP
1 *555:A 0.000235392
2 *615:A1 0.000210646
3 *547:Y 3.4256e-05
4 *93:8 0.000480295
5 *555:A *555:B 0.000153143
6 *555:A *670:D 1.74352e-05
7 *615:A1 *615:A2 0.000299845
8 *615:A1 *100:10 6.98302e-05
9 *93:8 *100:10 0.000128161
10 *614:A2 *615:A1 3.34295e-05
11 *614:A2 *93:8 0.00011891
12 *614:B1 *555:A 9.3111e-05
13 *615:B1 *615:A1 0
14 *669:D *615:A1 0.000186397
15 *47:10 *615:A1 9.10431e-06
*RES
1 *547:Y *93:8 15.4429 
2 *93:8 *615:A1 20.1571 
3 *93:8 *555:A 18.4607 
*END

*D_NET *94 0.00391876
*CONN
*I *629:A I *D sky130_fd_sc_hd__or2_1
*I *630:B I *D sky130_fd_sc_hd__nand2_1
*I *616:A1 I *D sky130_fd_sc_hd__o211a_1
*I *550:A I *D sky130_fd_sc_hd__nand2_1
*I *548:Y O *D sky130_fd_sc_hd__inv_2
*CAP
1 *629:A 0
2 *630:B 0.000177795
3 *616:A1 0.000201111
4 *550:A 0.000206966
5 *548:Y 0.000351306
6 *94:12 0.000543047
7 *94:10 0.000312765
8 *94:8 0.000351306
9 *550:A *549:A 0.000269385
10 *550:A *550:B 5.38444e-06
11 *550:A *712:A 5.60777e-05
12 *550:A *143:33 9.60875e-05
13 *550:A *159:10 8.97632e-06
14 *616:A1 *616:A2 0.000162209
15 *616:A1 *671:CLK 0
16 *616:A1 *712:A 0
17 *616:A1 *143:33 3.17148e-05
18 *630:B *672:CLK 0.000147089
19 *630:B *159:31 2.31791e-05
20 *94:8 *536:B 6.85025e-05
21 *94:12 *672:CLK 0.000213635
22 *94:12 *143:33 0.000168939
23 *94:12 *159:31 0.000292715
24 *621:A *550:A 5.52238e-05
25 *621:A *94:12 2.15363e-05
26 *621:B *94:8 0
27 *630:A *630:B 0
28 *669:D *616:A1 7.43578e-06
29 *3:23 *630:B 4.64488e-06
30 *49:20 *616:A1 0
31 *49:20 *94:12 0
32 *82:12 *94:8 0.000141729
*RES
1 *548:Y *94:8 13.9607 
2 *94:8 *94:10 4.5 
3 *94:10 *94:12 4.98214 
4 *94:12 *550:A 18.5857 
5 *94:12 *616:A1 18.3179 
6 *94:10 *630:B 17.1036 
7 *94:8 *629:A 9.3 
*END

*D_NET *95 0.00021307
*CONN
*I *550:B I *D sky130_fd_sc_hd__nand2_1
*I *549:Y O *D sky130_fd_sc_hd__inv_2
*CAP
1 *550:B 5.82394e-05
2 *549:Y 5.82394e-05
3 *550:B *554:A 2.59355e-05
4 *550:B *712:A 1.24368e-05
5 *550:B *96:8 5.28345e-05
6 *550:A *550:B 5.38444e-06
*RES
1 *549:Y *550:B 19.975 
*END

*D_NET *96 0.00111585
*CONN
*I *585:A2 I *D sky130_fd_sc_hd__a21oi_1
*I *553:B I *D sky130_fd_sc_hd__or3_1
*I *550:Y O *D sky130_fd_sc_hd__nand2_1
*CAP
1 *585:A2 0
2 *553:B 9.69516e-05
3 *550:Y 0.000311627
4 *96:8 0.000408578
5 *96:8 *549:A 9.83388e-05
6 *96:8 *553:C 6.56534e-05
7 *96:8 *554:A 6.7252e-05
8 *96:8 *712:A 1.46148e-05
9 *550:B *96:8 5.28345e-05
*RES
1 *550:Y *96:8 15.6036 
2 *96:8 *553:B 10.8714 
3 *96:8 *585:A2 9.3 
*END

*D_NET *97 0.000605796
*CONN
*I *552:C I *D sky130_fd_sc_hd__nand3_1
*I *638:B I *D sky130_fd_sc_hd__nand2_1
*I *551:Y O *D sky130_fd_sc_hd__inv_2
*CAP
1 *552:C 0
2 *638:B 2.01386e-05
3 *551:Y 0.000162697
4 *97:12 0.000182836
5 *638:B *98:14 1.98839e-05
6 *97:12 *98:14 5.50052e-05
7 *552:A *97:12 0.000113695
8 *552:B *97:12 2.25786e-05
9 *640:A *638:B 1.84776e-05
10 *640:A *97:12 1.0484e-05
*RES
1 *551:Y *97:12 12.4607 
2 *97:12 *638:B 9.83571 
3 *97:12 *552:C 9.3 
*END

*D_NET *98 0.00224127
*CONN
*I *585:B1 I *D sky130_fd_sc_hd__a21oi_1
*I *553:C I *D sky130_fd_sc_hd__or3_1
*I *552:Y O *D sky130_fd_sc_hd__nand3_1
*CAP
1 *585:B1 0
2 *553:C 0.000189096
3 *552:Y 0.000462556
4 *98:14 0.000651652
5 *553:C *585:A1 1.11845e-05
6 *553:C *178:8 2.84019e-05
7 *98:14 *581:B 4.98055e-06
8 *98:14 *639:A 0.000109672
9 *98:14 *643:C 0.000167052
10 *98:14 *687:A 0.000188586
11 *98:14 *122:8 9.26125e-05
12 *98:14 *143:16 6.74911e-05
13 *537:A *98:14 0.000127446
14 *638:B *98:14 1.98839e-05
15 *59:10 *98:14 0
16 *96:8 *553:C 6.56534e-05
17 *97:12 *98:14 5.50052e-05
*RES
1 *552:Y *98:14 28.0321 
2 *98:14 *553:C 21.3536 
3 *98:14 *585:B1 9.3 
*END

*D_NET *99 0.00162962
*CONN
*I *554:A I *D sky130_fd_sc_hd__inv_2
*I *553:X O *D sky130_fd_sc_hd__or3_1
*CAP
1 *554:A 0.000431031
2 *553:X 0.000431031
3 *554:A *616:B1 0.00015134
4 *554:A *712:A 0.000311293
5 *554:A *136:30 0.000113647
6 *550:B *554:A 2.59355e-05
7 *92:24 *554:A 9.80904e-05
8 *96:8 *554:A 6.7252e-05
*RES
1 *553:X *554:A 36.4393 
*END

*D_NET *100 0.00317971
*CONN
*I *614:A1 I *D sky130_fd_sc_hd__a21o_1
*I *555:B I *D sky130_fd_sc_hd__nor2_1
*I *615:A2 I *D sky130_fd_sc_hd__o21ai_1
*I *554:Y O *D sky130_fd_sc_hd__inv_2
*CAP
1 *614:A1 0
2 *555:B 0.000184086
3 *615:A2 0.000189069
4 *554:Y 0.000364939
5 *100:25 0.00027964
6 *100:10 0.000649561
7 *555:B *670:D 2.89016e-05
8 *555:A *555:B 0.000153143
9 *608:A *100:10 0
10 *614:B1 *555:B 0.000131824
11 *614:B1 *615:A2 0.000100726
12 *614:B1 *100:10 1.52978e-05
13 *614:B1 *100:25 0.000137983
14 *615:A1 *615:A2 0.000299845
15 *615:A1 *100:10 6.98302e-05
16 *615:B1 *615:A2 7.43578e-06
17 *47:10 *615:A2 3.92854e-05
18 *92:24 *100:10 0.000399981
19 *93:8 *100:10 0.000128161
*RES
1 *554:Y *100:10 20.175 
2 *100:10 *615:A2 18.2107 
3 *100:10 *100:25 5.85714 
4 *100:25 *555:B 12.7464 
5 *100:25 *614:A1 9.3 
*END

*D_NET *101 0.00437815
*CONN
*I *557:A I *D sky130_fd_sc_hd__inv_2
*I *610:B I *D sky130_fd_sc_hd__nor2_1
*I *560:B1 I *D sky130_fd_sc_hd__o21a_1
*I *556:Y O *D sky130_fd_sc_hd__nand2_1
*CAP
1 *557:A 0
2 *610:B 0.000112202
3 *560:B1 0.00020902
4 *556:Y 0
5 *101:33 0.000902747
6 *101:6 0.000999564
7 *560:B1 *560:A1 0.000266152
8 *560:B1 *569:B 5.66157e-05
9 *560:B1 *603:A1 0.000169325
10 *610:B *558:B 0.000111561
11 *610:B *573:A 5.65955e-05
12 *101:33 *560:A1 6.13812e-05
13 *101:33 *572:A 0.000124128
14 *101:33 *572:B 1.12578e-05
15 *101:33 *573:A 5.49489e-05
16 *101:33 *601:B 0.00022197
17 *101:33 *625:C 1.32293e-05
18 *101:33 *115:16 3.43566e-05
19 *101:33 *116:8 2.83425e-05
20 *101:33 *117:14 9.86782e-05
21 *543:B *560:B1 0.000197385
22 *543:B *101:33 0.00011632
23 *570:A *101:33 0
24 *591:B1 *560:B1 7.74068e-05
25 *626:A *610:B 0.000271904
26 *626:A *101:33 4.33899e-05
27 *626:B *101:33 0.000132469
28 *47:10 *610:B 7.20217e-06
*RES
1 *556:Y *101:6 13.8 
2 *101:6 *560:B1 20.6036 
3 *101:6 *101:33 26.4107 
4 *101:33 *610:B 13.1214 
5 *101:33 *557:A 9.3 
*END

*D_NET *102 0.00206688
*CONN
*I *573:A I *D sky130_fd_sc_hd__nand2_1
*I *558:B I *D sky130_fd_sc_hd__nor2_1
*I *557:Y O *D sky130_fd_sc_hd__inv_2
*CAP
1 *573:A 0.000162659
2 *558:B 0.00047158
3 *557:Y 0
4 *102:4 0.000634239
5 *573:A *117:14 1.21258e-05
6 *570:A *558:B 0.000342005
7 *570:B *558:B 5.02492e-05
8 *610:B *558:B 0.000111561
9 *610:B *573:A 5.65955e-05
10 *626:A *573:A 7.37949e-05
11 *627:C *573:A 9.71197e-05
12 *88:16 *558:B 0
13 *101:33 *573:A 5.49489e-05
*RES
1 *557:Y *102:4 9.3 
2 *102:4 *558:B 26.8536 
3 *102:4 *573:A 13.05 
*END

*D_NET *103 0.00140653
*CONN
*I *591:A3 I *D sky130_fd_sc_hd__o311a_1
*I *560:A2 I *D sky130_fd_sc_hd__o21a_1
*I *599:A I *D sky130_fd_sc_hd__nand2_1
*I *559:Y O *D sky130_fd_sc_hd__inv_2
*CAP
1 *591:A3 5.92169e-05
2 *560:A2 9.6928e-05
3 *599:A 7.06335e-05
4 *559:Y 0
5 *103:17 0.000314665
6 *103:4 0.000229154
7 *560:A2 *112:19 0.000140933
8 *591:A3 *560:A1 2.65271e-05
9 *599:A *602:C 0.000199009
10 *103:17 *560:A1 2.32789e-05
11 *103:17 *591:A2 0
12 *600:A *599:A 8.07313e-05
13 *600:A *103:17 0.000125724
14 *603:B1 *591:A3 3.54498e-05
15 *603:B1 *103:17 4.27842e-06
*RES
1 *559:Y *103:4 9.3 
2 *103:4 *599:A 11.8 
3 *103:4 *103:17 7.05357 
4 *103:17 *560:A2 15.1571 
5 *103:17 *591:A3 15.1393 
*END

*D_NET *104 0.000623367
*CONN
*I *567:A I *D sky130_fd_sc_hd__nand2_1
*I *560:X O *D sky130_fd_sc_hd__o21a_1
*CAP
1 *567:A 0.000117358
2 *560:X 0.000117358
3 *567:A *564:A 4.33209e-05
4 *567:A *569:A 1.32552e-05
5 *567:A *569:B 5.71472e-05
6 *567:A *600:B 0.000142856
7 *567:A *108:6 9.90367e-05
8 *564:B *567:A 3.30352e-05
*RES
1 *560:X *567:A 22.0286 
*END

*D_NET *105 0.00362764
*CONN
*I *624:B I *D sky130_fd_sc_hd__nand2_1
*I *609:B1 I *D sky130_fd_sc_hd__a21oi_1
*I *602:B I *D sky130_fd_sc_hd__nand3_1
*I *563:A I *D sky130_fd_sc_hd__nand2_1
*I *561:Y O *D sky130_fd_sc_hd__inv_2
*CAP
1 *624:B 0
2 *609:B1 3.21761e-05
3 *602:B 9.96374e-05
4 *563:A 2.23854e-05
5 *561:Y 7.52179e-05
6 *105:36 0.000452147
7 *105:14 0.000454601
8 *105:8 0.000827767
9 *563:A *566:A 0
10 *563:A *602:C 0
11 *602:B *566:A 8.86413e-05
12 *609:B1 *607:A 9.67754e-05
13 *105:14 *563:B 0.00010096
14 *105:14 *566:A 3.18676e-05
15 *105:14 *567:B 0
16 *105:14 *606:A1 0.000170438
17 *105:14 *144:31 7.7591e-05
18 *105:36 *607:A 1.71482e-05
19 *105:36 *624:A 2.95693e-05
20 *105:36 *116:8 1.98839e-05
21 *105:36 *118:6 0.000270257
22 *105:36 *144:31 0.000254448
23 *607:B *609:B1 5.33005e-05
24 *607:B *105:14 9.15842e-06
25 *607:B *105:36 0.000198252
26 *26:10 *105:14 0
27 *88:49 *105:8 9.58126e-05
28 *88:68 *105:8 1.24368e-05
29 *90:12 *105:14 1.73698e-05
30 *90:16 *105:14 8.8623e-05
31 *90:49 *105:36 3.11713e-05
*RES
1 *561:Y *105:8 14.7464 
2 *105:8 *105:14 11.5536 
3 *105:14 *563:A 9.72857 
4 *105:14 *602:B 11.0679 
5 *105:8 *105:36 12.8214 
6 *105:36 *609:B1 10.2464 
7 *105:36 *624:B 9.3 
*END

*D_NET *106 0.000455272
*CONN
*I *563:B I *D sky130_fd_sc_hd__nand2_1
*I *562:Y O *D sky130_fd_sc_hd__inv_2
*CAP
1 *563:B 0.000177156
2 *562:Y 0.000177156
3 *105:14 *563:B 0.00010096
*RES
1 *562:Y *563:B 30.9036 
*END

*D_NET *107 0.000641908
*CONN
*I *566:A I *D sky130_fd_sc_hd__nand3_1
*I *563:Y O *D sky130_fd_sc_hd__nand2_1
*CAP
1 *566:A 0.000135562
2 *563:Y 0.000135562
3 *566:A *567:B 0.000227532
4 *566:A *602:C 2.27416e-05
5 *563:A *566:A 0
6 *602:B *566:A 8.86413e-05
7 *105:14 *566:A 3.18676e-05
*RES
1 *563:Y *566:A 22.4393 
*END

*D_NET *108 0.00131896
*CONN
*I *600:B I *D sky130_fd_sc_hd__nand3_1
*I *566:B I *D sky130_fd_sc_hd__nand3_1
*I *564:Y O *D sky130_fd_sc_hd__nor2_1
*CAP
1 *600:B 0.000323707
2 *566:B 7.97587e-05
3 *564:Y 6.59684e-05
4 *108:6 0.000469434
5 *600:B *560:A1 3.18676e-05
6 *600:B *569:B 2.44318e-05
7 *600:B *112:19 5.39863e-05
8 *567:A *600:B 0.000142856
9 *567:A *108:6 9.90367e-05
10 *603:C1 *566:B 2.79092e-05
11 *26:10 *566:B 0
*RES
1 *564:Y *108:6 10.2464 
2 *108:6 *566:B 19.6393 
3 *108:6 *600:B 13.9607 
*END

*D_NET *109 0.00130839
*CONN
*I *599:B I *D sky130_fd_sc_hd__nand2_1
*I *566:C I *D sky130_fd_sc_hd__nand3_1
*I *565:Y O *D sky130_fd_sc_hd__inv_2
*CAP
1 *599:B 0
2 *566:C 4.10855e-05
3 *565:Y 0.000474912
4 *109:12 0.000515997
5 *566:C *602:C 5.33334e-05
6 *109:12 *174:12 0.000186669
7 *667:D *109:12 0
8 *17:200 *109:12 3.63889e-05
9 *26:10 *109:12 0
*RES
1 *565:Y *109:12 24.8893 
2 *109:12 *566:C 10.2464 
3 *109:12 *599:B 9.3 
*END

*D_NET *110 0.000925633
*CONN
*I *567:B I *D sky130_fd_sc_hd__nand2_1
*I *566:Y O *D sky130_fd_sc_hd__nand3_1
*CAP
1 *567:B 0.000237608
2 *566:Y 0.000237608
3 *566:A *567:B 0.000227532
4 *667:D *567:B 5.59013e-05
5 *26:10 *567:B 0.000166983
6 *105:14 *567:B 0
*RES
1 *566:Y *567:B 32.6357 
*END

*D_NET *111 0.000692243
*CONN
*I *569:A I *D sky130_fd_sc_hd__nand2_1
*I *567:Y O *D sky130_fd_sc_hd__nand2_1
*CAP
1 *569:A 0.000224886
2 *567:Y 0.000224886
3 *569:A *569:B 0
4 *569:A *572:A 9.15842e-06
5 *569:A *603:A1 0
6 *564:B *569:A 0.000194894
7 *567:A *569:A 1.32552e-05
8 *603:C1 *569:A 2.51629e-05
*RES
1 *567:Y *569:A 30.9482 
*END

*D_NET *112 0.00153291
*CONN
*I *603:A1 I *D sky130_fd_sc_hd__o211ai_2
*I *569:B I *D sky130_fd_sc_hd__nand2_1
*I *600:C I *D sky130_fd_sc_hd__nand3_1
*I *568:Y O *D sky130_fd_sc_hd__inv_2
*CAP
1 *603:A1 9.23181e-05
2 *569:B 5.91619e-05
3 *600:C 2.23854e-05
4 *568:Y 5.31131e-05
5 *112:19 0.0003204
6 *112:6 0.000244419
7 *603:A1 *572:A 4.60115e-05
8 *603:A1 *144:69 5.33005e-05
9 *112:19 *560:A1 2.89114e-05
10 *560:A2 *112:19 0.000140933
11 *560:B1 *569:B 5.66157e-05
12 *560:B1 *603:A1 0.000169325
13 *567:A *569:B 5.71472e-05
14 *569:A *569:B 0
15 *569:A *603:A1 0
16 *591:B1 *603:A1 5.33005e-05
17 *600:B *569:B 2.44318e-05
18 *600:B *112:19 5.39863e-05
19 *603:B1 *112:19 5.71472e-05
*RES
1 *568:Y *112:6 10.2464 
2 *112:6 *600:C 9.72857 
3 *112:6 *112:19 8.33929 
4 *112:19 *569:B 15.4786 
5 *112:19 *603:A1 16.5857 
*END

*D_NET *113 0.00163826
*CONN
*I *572:A I *D sky130_fd_sc_hd__nand2_1
*I *569:Y O *D sky130_fd_sc_hd__nand2_1
*CAP
1 *572:A 0.000439174
2 *569:Y 0.000439174
3 *572:A *601:B 2.59355e-05
4 *572:A *686:A 0.000193459
5 *572:A *116:8 0
6 *543:B *572:A 7.79729e-05
7 *569:A *572:A 9.15842e-06
8 *591:B1 *572:A 2.09722e-05
9 *603:A1 *572:A 4.60115e-05
10 *603:B1 *572:A 7.95353e-05
11 *26:10 *572:A 0.000117381
12 *44:10 *572:A 6.53562e-05
13 *101:33 *572:A 0.000124128
*RES
1 *569:Y *572:A 38.35 
*END

*D_NET *114 0.00187395
*CONN
*I *616:B1 I *D sky130_fd_sc_hd__o211a_1
*I *571:A I *D sky130_fd_sc_hd__nand2_1
*I *570:Y O *D sky130_fd_sc_hd__nor2_1
*CAP
1 *616:B1 0.00035774
2 *571:A 0.000146556
3 *570:Y 5.19612e-05
4 *114:8 0.000556257
5 *571:A *571:B 2.8266e-06
6 *571:A *611:B 2.84109e-05
7 *571:A *712:A 4.13122e-06
8 *616:B1 *616:A2 1.02132e-05
9 *616:B1 *712:A 6.19837e-05
10 *547:A *616:B1 5.49544e-05
11 *554:A *616:B1 0.00015134
12 *570:A *571:A 0.000200406
13 *570:B *114:8 6.05161e-06
14 *612:A *571:A 3.08664e-05
15 *87:16 *616:B1 0.00021025
*RES
1 *570:Y *114:8 14.3357 
2 *114:8 *571:A 17.4964 
3 *114:8 *616:B1 20.9964 
*END

*D_NET *115 0.00222051
*CONN
*I *597:A I *D sky130_fd_sc_hd__inv_2
*I *590:A1 I *D sky130_fd_sc_hd__o21ai_1
*I *572:B I *D sky130_fd_sc_hd__nand2_1
*I *571:Y O *D sky130_fd_sc_hd__nand2_1
*CAP
1 *597:A 0
2 *590:A1 0.000189432
3 *572:B 9.80634e-05
4 *571:Y 8.93335e-05
5 *115:16 0.000542036
6 *115:8 0.000343874
7 *572:B *117:14 0.000120339
8 *572:B *146:16 0
9 *590:A1 *573:B 0.000230568
10 *590:A1 *146:14 1.24368e-05
11 *115:8 *611:B 0.000371447
12 *115:16 *590:A2 0
13 *604:A2 *115:8 3.93247e-05
14 *604:B1 *115:16 0
15 *612:A *115:8 0.000108289
16 *627:C *590:A1 2.97489e-05
17 *627:C *115:16 0
18 *101:33 *572:B 1.12578e-05
19 *101:33 *115:16 3.43566e-05
*RES
1 *571:Y *115:8 13.1393 
2 *115:8 *115:16 8.32143 
3 *115:16 *572:B 15.7464 
4 *115:16 *590:A1 17.7643 
5 *115:8 *597:A 9.3 
*END

*D_NET *116 0.000534656
*CONN
*I *574:A I *D sky130_fd_sc_hd__nand2_1
*I *625:A I *D sky130_fd_sc_hd__nand3_1
*I *572:Y O *D sky130_fd_sc_hd__nand2_1
*CAP
1 *574:A 0
2 *625:A 1.11585e-05
3 *572:Y 0.000117279
4 *116:8 0.000128437
5 *625:A *625:C 5.49489e-05
6 *625:A *118:6 2.36643e-05
7 *116:8 *625:C 3.92952e-05
8 *116:8 *117:14 5.66971e-05
9 *116:8 *118:6 5.49489e-05
10 *572:A *116:8 0
11 *101:33 *116:8 2.83425e-05
12 *105:36 *116:8 1.98839e-05
*RES
1 *572:Y *116:8 11.9071 
2 *116:8 *625:A 9.83571 
3 *116:8 *574:A 9.3 
*END

*D_NET *117 0.00112067
*CONN
*I *625:C I *D sky130_fd_sc_hd__nand3_1
*I *574:B I *D sky130_fd_sc_hd__nand2_1
*I *573:Y O *D sky130_fd_sc_hd__nand2_1
*CAP
1 *625:C 9.80246e-05
2 *574:B 0
3 *573:Y 0.000134421
4 *117:14 0.000232446
5 *625:C *607:A 9.83388e-05
6 *625:C *118:6 4.7812e-05
7 *117:14 *144:31 1.89507e-06
8 *572:B *117:14 0.000120339
9 *573:A *117:14 1.21258e-05
10 *625:A *625:C 5.49489e-05
11 *626:A *117:14 1.24368e-05
12 *626:B *625:C 9.99853e-05
13 *101:33 *625:C 1.32293e-05
14 *101:33 *117:14 9.86782e-05
15 *116:8 *625:C 3.92952e-05
16 *116:8 *117:14 5.66971e-05
*RES
1 *573:Y *117:14 21.0143 
2 *117:14 *574:B 9.3 
3 *117:14 *625:C 12.3179 
*END

*D_NET *118 0.00132798
*CONN
*I *624:A I *D sky130_fd_sc_hd__nand2_1
*I *575:A I *D sky130_fd_sc_hd__inv_2
*I *574:Y O *D sky130_fd_sc_hd__nand2_1
*CAP
1 *624:A 3.04389e-05
2 *575:A 0.000292742
3 *574:Y 5.7301e-05
4 *118:6 0.000380482
5 *575:A *144:31 0
6 *575:A *146:59 8.36752e-05
7 *118:6 *607:A 1.0535e-05
8 *607:B *575:A 4.65556e-05
9 *625:A *118:6 2.36643e-05
10 *625:C *118:6 4.7812e-05
11 *105:36 *624:A 2.95693e-05
12 *105:36 *118:6 0.000270257
13 *116:8 *118:6 5.49489e-05
*RES
1 *574:Y *118:6 11.8893 
2 *118:6 *575:A 23.55 
3 *118:6 *624:A 10.0321 
*END

*D_NET *119 0.00275218
*CONN
*I *577:B1_N I *D sky130_fd_sc_hd__o21bai_1
*I *618:A2 I *D sky130_fd_sc_hd__a211oi_1
*I *576:Y O *D sky130_fd_sc_hd__nand2_1
*CAP
1 *577:B1_N 1.99857e-05
2 *618:A2 3.09404e-05
3 *576:Y 0.00109361
4 *119:12 0.00114454
5 *577:B1_N *617:B 0
6 *119:12 *578:A 0.000117621
7 *119:12 *584:A 0.000183726
8 *577:A2 *577:B1_N 1.04232e-05
9 *577:A2 *618:A2 2.89016e-05
10 *577:A2 *119:12 0.000122436
*RES
1 *576:Y *119:12 36.1929 
2 *119:12 *618:A2 9.83571 
3 *119:12 *577:B1_N 9.72857 
*END

*D_NET *120 0.000415994
*CONN
*I *578:A I *D sky130_fd_sc_hd__nand2_1
*I *577:Y O *D sky130_fd_sc_hd__o21bai_1
*CAP
1 *578:A 0.000139636
2 *577:Y 0.000139636
3 *577:A2 *578:A 1.91004e-05
4 *119:12 *578:A 0.000117621
*RES
1 *577:Y *578:A 21.6357 
*END

*D_NET *121 0.000722509
*CONN
*I *584:A I *D sky130_fd_sc_hd__nand2_1
*I *578:Y O *D sky130_fd_sc_hd__nand2_1
*CAP
1 *584:A 0.000191186
2 *578:Y 0.000191186
3 *584:A *583:B 0
4 *584:A *129:12 4.90416e-05
5 *546:A *584:A 2.11419e-05
6 *595:A *584:A 2.03079e-05
7 *92:16 *584:A 6.5919e-05
8 *119:12 *584:A 0.000183726
*RES
1 *578:Y *584:A 31.0107 
*END

*D_NET *122 0.00170973
*CONN
*I *639:A I *D sky130_fd_sc_hd__or2_1
*I *580:B I *D sky130_fd_sc_hd__nor2_1
*I *579:Y O *D sky130_fd_sc_hd__nand2_1
*CAP
1 *639:A 0.000182634
2 *580:B 0.000309391
3 *579:Y 6.44717e-05
4 *122:8 0.000556497
5 *580:B *179:14 5.99898e-05
6 *639:A *643:C 1.12578e-05
7 *537:B *580:B 8.6229e-06
8 *637:B *639:A 6.14153e-05
9 *637:B *122:8 2.07158e-05
10 *638:A *639:A 0.000184503
11 *640:A *639:A 2.51343e-06
12 *59:10 *580:B 1.94945e-05
13 *82:12 *580:B 2.59355e-05
14 *98:14 *639:A 0.000109672
15 *98:14 *122:8 9.26125e-05
*RES
1 *579:Y *122:8 14.9875 
2 *122:8 *580:B 21.9119 
3 *122:8 *639:A 17.7732 
*END

*D_NET *123 0.00384824
*CONN
*I *643:C I *D sky130_fd_sc_hd__nand3_1
*I *581:B I *D sky130_fd_sc_hd__nor2_1
*I *580:Y O *D sky130_fd_sc_hd__nor2_1
*CAP
1 *643:C 0.000559476
2 *581:B 0.000202586
3 *580:Y 7.2433e-05
4 *123:8 0.000834495
5 *581:B *143:16 9.25014e-06
6 *643:C *538:B 5.33005e-05
7 *123:8 *579:A 5.52302e-05
8 *123:8 *179:14 2.14658e-05
9 *537:A *581:B 0.000560628
10 *537:B *581:B 0.000315165
11 *637:B *643:C 0.00020737
12 *639:A *643:C 1.12578e-05
13 *59:10 *581:B 9.49854e-05
14 *59:10 *643:C 8.76541e-05
15 *59:35 *643:C 0.000366634
16 *71:21 *643:C 0.000224276
17 *98:14 *581:B 4.98055e-06
18 *98:14 *643:C 0.000167052
*RES
1 *580:Y *123:8 14.7464 
2 *123:8 *581:B 20.6393 
3 *123:8 *643:C 27.2286 
*END

*D_NET *124 0.00204709
*CONN
*I *618:C1 I *D sky130_fd_sc_hd__a211oi_1
*I *594:A I *D sky130_fd_sc_hd__nand2_1
*I *583:A I *D sky130_fd_sc_hd__nand3_1
*I *581:Y O *D sky130_fd_sc_hd__nor2_1
*CAP
1 *618:C1 0
2 *594:A 0
3 *583:A 7.07653e-05
4 *581:Y 0.000271062
5 *124:16 0.000244666
6 *124:10 0.000444962
7 *124:10 *583:B 0
8 *124:10 *617:B 9.99989e-05
9 *124:10 *148:18 0.000311028
10 *124:16 *583:B 0
11 *537:B *124:10 0.000139907
12 *545:B *583:A 4.36962e-05
13 *546:A *124:16 2.09826e-05
14 *595:A *583:A 4.70078e-05
15 *617:A *124:16 4.45881e-05
16 *618:A1 *124:16 6.42338e-05
17 *59:10 *124:10 0
18 *59:10 *124:16 0
19 *87:16 *124:10 0
20 *89:16 *124:16 5.80706e-06
21 *90:92 *124:16 1.76039e-05
22 *92:24 *583:A 0.00022078
*RES
1 *581:Y *124:10 19.5321 
2 *124:10 *124:16 7.28571 
3 *124:16 *583:A 11.925 
4 *124:16 *594:A 9.3 
5 *124:10 *618:C1 13.8 
*END

*D_NET *125 0.00292311
*CONN
*I *586:A I *D sky130_fd_sc_hd__nor2_1
*I *617:B I *D sky130_fd_sc_hd__nand2_1
*I *583:B I *D sky130_fd_sc_hd__nand3_1
*I *582:Y O *D sky130_fd_sc_hd__inv_2
*CAP
1 *586:A 0
2 *617:B 0.000247509
3 *583:B 0.000238624
4 *582:Y 0.000185836
5 *125:8 0.000671969
6 *583:B *129:12 0
7 *617:B *143:16 0.000139019
8 *617:B *143:80 1.38323e-05
9 *617:B *148:18 5.7661e-06
10 *125:8 *129:12 4.35336e-05
11 *125:8 *143:6 1.04232e-05
12 *125:8 *143:80 0.00044852
13 *541:B *617:B 5.33005e-05
14 *541:B *125:8 4.22602e-05
15 *577:A1 *583:B 0
16 *577:A2 *583:B 0.000173804
17 *577:B1_N *617:B 0
18 *584:A *583:B 0
19 *586:B *583:B 7.90803e-05
20 *586:B *125:8 5.52302e-05
21 *595:A *583:B 5.52238e-05
22 *617:A *583:B 3.0305e-05
23 *617:A *617:B 7.82542e-06
24 *618:B1 *617:B 1.04232e-05
25 *59:10 *617:B 0
26 *86:12 *583:B 3.17148e-05
27 *87:16 *617:B 0.000134441
28 *92:16 *583:B 8.732e-05
29 *92:24 *583:B 5.71472e-05
30 *124:10 *583:B 0
31 *124:10 *617:B 9.99989e-05
32 *124:16 *583:B 0
*RES
1 *582:Y *125:8 14.7821 
2 *125:8 *583:B 23.5143 
3 *125:8 *617:B 24.3268 
4 *125:8 *586:A 9.3 
*END

*D_NET *126 0.000417786
*CONN
*I *584:B I *D sky130_fd_sc_hd__nand2_1
*I *583:Y O *D sky130_fd_sc_hd__nand3_1
*CAP
1 *584:B 0.000124104
2 *583:Y 0.000124104
3 *584:B *127:10 9.60939e-05
4 *595:A *584:B 1.35346e-05
5 *92:16 *584:B 2.47771e-05
6 *92:24 *584:B 3.51717e-05
*RES
1 *583:Y *584:B 22.5732 
*END

*D_NET *127 0.00182274
*CONN
*I *596:B I *D sky130_fd_sc_hd__nor2_1
*I *592:A I *D sky130_fd_sc_hd__or3_1
*I *584:Y O *D sky130_fd_sc_hd__nand2_1
*CAP
1 *596:B 0
2 *592:A 0.000289177
3 *584:Y 0.000155489
4 *127:10 0.000444665
5 *592:A *590:B1 0.000180202
6 *592:A *593:A 0.000148903
7 *592:A *129:12 0
8 *592:A *146:10 6.62058e-05
9 *127:10 *129:12 0
10 *584:B *127:10 9.60939e-05
11 *595:A *127:10 0.000125724
12 *605:A *592:A 4.27842e-06
13 *622:C *592:A 5.50052e-05
14 *627:A *592:A 0.000126439
15 *38:10 *592:A 9.50822e-05
16 *45:10 *592:A 3.54808e-05
17 *89:16 *592:A 0
18 *89:16 *127:10 0
*RES
1 *584:Y *127:10 16.6929 
2 *127:10 *592:A 21.2107 
3 *127:10 *596:B 13.8 
*END

*D_NET *128 0.00217286
*CONN
*I *604:A1 I *D sky130_fd_sc_hd__a21oi_1
*I *590:A2 I *D sky130_fd_sc_hd__o21ai_1
*I *585:Y O *D sky130_fd_sc_hd__a21oi_1
*CAP
1 *604:A1 6.59684e-05
2 *590:A2 0.000364705
3 *585:Y 0.000463636
4 *128:8 0.00089431
5 *590:A2 *686:A 0
6 *590:A2 *146:14 2.13481e-06
7 *604:A1 *611:B 9.90367e-05
8 *128:8 *686:A 0
9 *128:8 *687:A 0
10 *623:A *590:A2 2.51343e-06
11 *627:C *590:A2 0.000230475
12 *3:23 *128:8 5.0077e-05
13 *115:16 *590:A2 0
*RES
1 *585:Y *128:8 22.1214 
2 *128:8 *590:A2 18.9429 
3 *128:8 *604:A1 14.7464 
*END

*D_NET *129 0.00151015
*CONN
*I *589:A I *D sky130_fd_sc_hd__nand2_1
*I *595:B I *D sky130_fd_sc_hd__nor2_1
*I *586:Y O *D sky130_fd_sc_hd__nor2_1
*CAP
1 *589:A 2.3401e-05
2 *595:B 0
3 *586:Y 0.000476563
4 *129:12 0.000499964
5 *589:A *589:B 5.33433e-05
6 *589:A *590:B1 5.33433e-05
7 *541:B *129:12 5.71472e-05
8 *546:A *129:12 2.11419e-05
9 *577:A1 *129:12 0.000175519
10 *578:B *129:12 0
11 *583:B *129:12 0
12 *584:A *129:12 4.90416e-05
13 *592:A *129:12 0
14 *595:A *129:12 0
15 *87:6 *129:12 5.71472e-05
16 *125:8 *129:12 4.35336e-05
17 *127:10 *129:12 0
*RES
1 *586:Y *129:12 27.175 
2 *129:12 *595:B 9.3 
3 *129:12 *589:A 10.2464 
*END

*D_NET *130 0.00208008
*CONN
*I *588:B I *D sky130_fd_sc_hd__and2_1
*I *601:B I *D sky130_fd_sc_hd__nor2_1
*I *587:Y O *D sky130_fd_sc_hd__inv_2
*CAP
1 *588:B 0.000393889
2 *601:B 0.000184193
3 *587:Y 0
4 *130:4 0.000578082
5 *588:B *556:B 2.24804e-05
6 *588:B *592:C 3.79779e-05
7 *588:B *593:A 2.39876e-05
8 *588:B *145:23 7.69499e-05
9 *601:B *556:B 9.58632e-05
10 *601:B *144:81 6.31653e-05
11 *601:B *144:87 5.33005e-05
12 *572:A *601:B 2.59355e-05
13 *605:B *588:B 9.96553e-05
14 *45:10 *588:B 0.000187331
15 *89:16 *588:B 1.52978e-05
16 *90:92 *588:B 0
17 *101:33 *601:B 0.00022197
*RES
1 *587:Y *130:4 9.3 
2 *130:4 *601:B 13.5679 
3 *130:4 *588:B 25.2643 
*END

*D_NET *131 0.0057113
*CONN
*I *594:B I *D sky130_fd_sc_hd__nand2_1
*I *589:B I *D sky130_fd_sc_hd__nand2_1
*I *611:B I *D sky130_fd_sc_hd__nor2_1
*I *588:X O *D sky130_fd_sc_hd__and2_1
*CAP
1 *594:B 8.64671e-05
2 *589:B 0.000511251
3 *611:B 0.00102088
4 *588:X 0.000222444
5 *131:25 0.000700938
6 *131:8 0.00134655
7 *589:B *141:8 3.55552e-05
8 *611:B *571:B 3.39935e-05
9 *131:8 *593:A 1.24368e-05
10 *571:A *611:B 2.84109e-05
11 *589:A *589:B 5.33433e-05
12 *595:A *589:B 9.90431e-05
13 *596:A *589:B 1.74352e-05
14 *604:A1 *611:B 9.90367e-05
15 *604:A2 *611:B 1.77294e-05
16 *604:B1 *611:B 0.000143557
17 *612:A *611:B 0.000104172
18 *627:A *131:8 0.000245383
19 *45:10 *611:B 7.28899e-05
20 *48:8 *611:B 3.99614e-06
21 *59:10 *594:B 0
22 *59:10 *131:25 0
23 *89:12 *611:B 7.32272e-05
24 *89:12 *131:8 3.68898e-05
25 *90:92 *594:B 0.000175526
26 *90:92 *131:25 0.000198698
27 *115:8 *611:B 0.000371447
*RES
1 *588:X *131:8 13.55 
2 *131:8 *611:B 25.9071 
3 *131:8 *131:25 7.05357 
4 *131:25 *589:B 22.175 
5 *131:25 *594:B 16.05 
*END

*D_NET *132 0.00226884
*CONN
*I *590:B1 I *D sky130_fd_sc_hd__o21ai_1
*I *589:Y O *D sky130_fd_sc_hd__nand2_1
*CAP
1 *590:B1 0.000541183
2 *589:Y 0.000541183
3 *590:B1 *592:B 0.000442628
4 *590:B1 *593:A 2.89114e-05
5 *590:B1 *146:8 4.94761e-05
6 *590:B1 *146:10 0.000102631
7 *590:B1 *146:14 1.35465e-05
8 *589:A *590:B1 5.33433e-05
9 *592:A *590:B1 0.000180202
10 *623:A *590:B1 0.000118599
11 *627:A *590:B1 2.89114e-05
12 *38:10 *590:B1 0.000168226
*RES
1 *589:Y *590:B1 40.9571 
*END

*D_NET *133 0.00101413
*CONN
*I *592:B I *D sky130_fd_sc_hd__or3_1
*I *590:Y O *D sky130_fd_sc_hd__o21ai_1
*CAP
1 *592:B 0.000228491
2 *590:Y 0.000228491
3 *590:B1 *592:B 0.000442628
4 *623:A *592:B 1.35553e-05
5 *627:B *592:B 0.00010096
*RES
1 *590:Y *592:B 23.6714 
*END

*D_NET *134 0.00121032
*CONN
*I *592:C I *D sky130_fd_sc_hd__or3_1
*I *591:X O *D sky130_fd_sc_hd__o311a_1
*CAP
1 *592:C 0.000339336
2 *591:X 0.000339336
3 *592:C *591:A2 2.33087e-05
4 *592:C *144:69 2.11336e-05
5 *592:C *144:81 0.000289204
6 *588:B *592:C 3.79779e-05
7 *591:C1 *592:C 5.85373e-05
8 *90:92 *592:C 0.000101486
*RES
1 *591:X *592:C 35.4571 
*END

*D_NET *135 0.000763341
*CONN
*I *593:A I *D sky130_fd_sc_hd__clkbuf_1
*I *592:X O *D sky130_fd_sc_hd__or3_1
*CAP
1 *593:A 0.000176696
2 *592:X 0.000176696
3 *588:B *593:A 2.39876e-05
4 *590:B1 *593:A 2.89114e-05
5 *592:A *593:A 0.000148903
6 *627:A *593:A 9.41642e-05
7 *45:10 *593:A 0.000101545
8 *131:8 *593:A 1.24368e-05
*RES
1 *592:X *593:A 31.4393 
*END

*D_NET *136 0.00660569
*CONN
*I *672:D I *D sky130_fd_sc_hd__dfrtp_1
*I *609:Y O *D sky130_fd_sc_hd__a21oi_1
*CAP
1 *672:D 0.000761625
2 *609:Y 0.00189954
3 *136:30 0.00266116
4 *672:D *672:CLK 0.000183598
5 *672:D *148:18 1.24368e-05
6 *672:D *157:14 6.67587e-06
7 *136:30 *549:A 5.58941e-05
8 *136:30 *585:A1 0
9 *136:30 *607:A 0
10 *136:30 *609:A1 9.59532e-06
11 *136:30 *610:A 7.19312e-05
12 *136:30 *672:CLK 0
13 *136:30 *712:A 1.08847e-05
14 *136:30 *146:33 2.69988e-05
15 *136:30 *146:59 1.26641e-05
16 *136:30 *176:36 0
17 *136:30 *177:14 0.000305391
18 *136:30 *178:8 0
19 *136:30 *178:34 0
20 *554:A *136:30 0.000113647
21 *607:B *136:30 3.10819e-05
22 *626:A *136:30 5.01689e-05
23 *631:A *672:D 1.21258e-05
24 *637:A *136:30 0.000236876
25 *660:D *136:30 7.83659e-05
26 *672:RESET_B *672:D 5.65233e-05
27 *17:108 *136:30 0
28 *90:49 *136:30 8.50349e-06
*RES
1 *609:Y *136:30 48.6076 
2 *136:30 *672:D 18.9071 
*END

*D_NET *137 0.000851367
*CONN
*I *673:D I *D sky130_fd_sc_hd__dfrtp_1
*I *613:X O *D sky130_fd_sc_hd__clkbuf_1
*CAP
1 *673:D 0.000276569
2 *613:X 0.000276569
3 *673:D *659:CLK 0.000241044
4 *673:D *707:A 0
5 *672:RESET_B *673:D 2.34204e-05
6 *49:20 *673:D 3.37643e-05
*RES
1 *613:X *673:D 31.9393 
*END

*D_NET *138 0.000747911
*CONN
*I *670:D I *D sky130_fd_sc_hd__dfrtp_1
*I *555:Y O *D sky130_fd_sc_hd__nor2_1
*CAP
1 *670:D 0.000299161
2 *555:Y 0.000299161
3 *670:D *671:CLK 0
4 *670:D *671:D 0.000103253
5 *555:A *670:D 1.74352e-05
6 *555:B *670:D 2.89016e-05
7 *669:D *670:D 0
8 *17:148 *670:D 0
9 *17:150 *670:D 0
*RES
1 *555:Y *670:D 32.6 
*END

*D_NET *139 0.000256703
*CONN
*I *671:D I *D sky130_fd_sc_hd__dfrtp_1
*I *614:X O *D sky130_fd_sc_hd__a21o_1
*CAP
1 *671:D 3.16663e-05
2 *614:X 3.16663e-05
3 *671:D *671:CLK 1.00375e-05
4 *670:D *671:D 0.000103253
5 *49:20 *671:D 8.00806e-05
*RES
1 *614:X *671:D 28.9393 
*END

*D_NET *140 0.00269557
*CONN
*I *668:D I *D sky130_fd_sc_hd__dfrtp_1
*I *615:Y O *D sky130_fd_sc_hd__o21ai_1
*CAP
1 *668:D 0.000860564
2 *615:Y 0.000860564
3 *668:D *668:CLK 0.000559234
4 *668:D *704:A 4.72917e-05
5 *668:D *142:95 0.000207324
6 *669:D *668:D 0.000160593
*RES
1 *615:Y *668:D 47.6 
*END

*D_NET *141 0.00421841
*CONN
*I *687:A I *D sky130_fd_sc_hd__clkbuf_16
*I *686:A I *D sky130_fd_sc_hd__clkbuf_16
*I *685:X O *D sky130_fd_sc_hd__clkbuf_16
*CAP
1 *687:A 0.000478103
2 *686:A 0.000483954
3 *685:X 0.000337391
4 *141:8 0.00129945
5 *686:A *571:B 6.70978e-05
6 *686:A *144:87 4.94302e-05
7 *687:A *585:A1 0
8 *572:A *686:A 0.000193459
9 *589:B *141:8 3.55552e-05
10 *590:A2 *686:A 0
11 *604:B1 *686:A 0.000143184
12 *627:C *686:A 9.11365e-06
13 *3:23 *687:A 0
14 *44:10 *686:A 0.000353533
15 *59:10 *686:A 7.8327e-05
16 *59:10 *687:A 0.00027725
17 *88:68 *686:A 7.22772e-05
18 *89:12 *686:A 1.18451e-05
19 *90:10 *686:A 0.000139853
20 *98:14 *687:A 0.000188586
21 *128:8 *686:A 0
22 *128:8 *687:A 0
*RES
1 *685:X *141:8 17.6214 
2 *141:8 *686:A 26.2821 
3 *141:8 *687:A 24.9607 
*END

*D_NET *142 0.0183869
*CONN
*I *676:CLK I *D sky130_fd_sc_hd__dfrtp_4
*I *675:CLK I *D sky130_fd_sc_hd__dfrtp_1
*I *681:CLK I *D sky130_fd_sc_hd__dfrtp_1
*I *682:CLK I *D sky130_fd_sc_hd__dfrtp_1
*I *678:CLK I *D sky130_fd_sc_hd__dfrtp_1
*I *683:CLK I *D sky130_fd_sc_hd__dfrtp_1
*I *679:CLK I *D sky130_fd_sc_hd__dfrtp_1
*I *667:CLK I *D sky130_fd_sc_hd__dfrtp_1
*I *674:CLK I *D sky130_fd_sc_hd__dfrtp_4
*I *669:CLK I *D sky130_fd_sc_hd__dfrtp_1
*I *670:CLK I *D sky130_fd_sc_hd__dfrtp_1
*I *668:CLK I *D sky130_fd_sc_hd__dfrtp_1
*I *666:CLK I *D sky130_fd_sc_hd__dfrtp_1
*I *684:CLK I *D sky130_fd_sc_hd__dfrtp_1
*I *680:CLK I *D sky130_fd_sc_hd__dfrtp_1
*I *677:CLK I *D sky130_fd_sc_hd__dfrtp_1
*I *686:X O *D sky130_fd_sc_hd__clkbuf_16
*CAP
1 *676:CLK 0.000564747
2 *675:CLK 9.19622e-05
3 *681:CLK 0.00015723
4 *682:CLK 0
5 *678:CLK 3.82418e-05
6 *683:CLK 5.57267e-05
7 *679:CLK 0
8 *667:CLK 6.36619e-06
9 *674:CLK 0
10 *669:CLK 0
11 *670:CLK 0.000281003
12 *668:CLK 0.000632784
13 *666:CLK 6.17285e-05
14 *684:CLK 0.000109978
15 *680:CLK 0.000339738
16 *677:CLK 0.00019353
17 *686:X 0.000735799
18 *142:170 0.000800498
19 *142:120 4.44358e-05
20 *142:97 0.00032981
21 *142:95 0.000274924
22 *142:76 0.000973994
23 *142:65 0.000294096
24 *142:45 0.00066899
25 *142:37 0.000743735
26 *142:33 0.00108979
27 *142:31 0.00141428
28 *142:29 0.00177561
29 *142:14 0.00129896
30 *142:12 0.000197055
31 *142:10 0.000724646
32 *142:8 0.00133203
33 *668:CLK *704:A 9.90367e-05
34 *676:CLK *146:8 0.000247642
35 *677:CLK *677:D 2.27416e-05
36 *677:CLK *682:D 2.50656e-05
37 *680:CLK *680:D 5.23142e-05
38 *681:CLK *681:D 6.05161e-06
39 *683:CLK *683:D 9.91086e-05
40 *684:CLK *684:D 0.00018051
41 *142:14 *682:D 2.77154e-05
42 *142:29 *682:D 0.000114906
43 *142:33 *679:D 0.000141241
44 *142:65 *704:A 0
45 *142:76 *704:A 0
46 clk_gate_en *142:45 3.1074e-05
47 clk_gate_en *142:65 0
48 clk_gate_en *142:76 0
49 clk_gate_en *142:95 0
50 retention_en *142:65 0
51 *667:D *667:CLK 5.65955e-05
52 *667:D *683:CLK 0.000123295
53 *667:D *142:31 3.80953e-06
54 *667:D *142:33 5.30455e-05
55 *667:D *142:37 4.7812e-05
56 *668:D *668:CLK 0.000559234
57 *668:D *142:95 0.000207324
58 *669:D *670:CLK 0.000531364
59 *669:D *142:97 2.85321e-05
60 *674:RESET_B *142:97 1.35465e-05
61 *676:RESET_B *676:CLK 9.6453e-05
62 *679:RESET_B *142:33 9.17414e-05
63 *680:RESET_B *680:CLK 2.81497e-05
64 *17:166 *680:CLK 2.89114e-05
65 *17:170 *680:CLK 0.000114093
66 *17:170 *684:CLK 9.27866e-05
67 *90:6 *142:8 3.11088e-05
*RES
1 *686:X *142:8 26.2464 
2 *142:8 *142:10 8.01786 
3 *142:10 *142:12 1.94643 
4 *142:12 *142:14 1.64286 
5 *142:14 *677:CLK 17.4964 
6 *142:14 *142:29 16.5357 
7 *142:29 *142:31 8.33929 
8 *142:31 *142:33 8.33929 
9 *142:33 *142:37 9.55357 
10 *142:37 *142:45 8.42857 
11 *142:45 *680:CLK 16.0143 
12 *142:45 *684:CLK 12.7286 
13 *142:37 *142:65 1.94643 
14 *142:65 *666:CLK 14.7464 
15 *142:65 *142:76 1.94643 
16 *142:76 *668:CLK 23.8357 
17 *142:76 *142:95 9.78571 
18 *142:95 *142:97 0.946429 
19 *142:97 *670:CLK 25.7107 
20 *142:97 *669:CLK 9.3 
21 *142:95 *674:CLK 9.3 
22 *142:33 *142:120 0.732143 
23 *142:120 *667:CLK 9.83571 
24 *142:120 *679:CLK 9.3 
25 *142:31 *683:CLK 19.9429 
26 *142:29 *678:CLK 10.0321 
27 *142:12 *682:CLK 13.8 
28 *142:10 *681:CLK 15.8893 
29 *142:8 *142:170 2.55357 
30 *142:170 *675:CLK 15.1571 
31 *142:170 *676:CLK 24.9964 
*END

*D_NET *143 0.0179746
*CONN
*I *665:CLK I *D sky130_fd_sc_hd__dfrtp_1
*I *663:CLK I *D sky130_fd_sc_hd__dfrtp_1
*I *662:CLK I *D sky130_fd_sc_hd__dfrtp_1
*I *673:CLK I *D sky130_fd_sc_hd__dfrtp_1
*I *659:CLK I *D sky130_fd_sc_hd__dfrtp_1
*I *664:CLK I *D sky130_fd_sc_hd__dfrtp_1
*I *661:CLK I *D sky130_fd_sc_hd__dfrtp_1
*I *660:CLK I *D sky130_fd_sc_hd__dfrtp_1
*I *658:CLK I *D sky130_fd_sc_hd__dfrtp_1
*I *672:CLK I *D sky130_fd_sc_hd__dfrtp_1
*I *657:CLK I *D sky130_fd_sc_hd__dfstp_1
*I *671:CLK I *D sky130_fd_sc_hd__dfrtp_1
*I *688:A I *D sky130_fd_sc_hd__bufinv_16
*I *687:X O *D sky130_fd_sc_hd__clkbuf_16
*CAP
1 *665:CLK 0
2 *663:CLK 0
3 *662:CLK 0
4 *673:CLK 0
5 *659:CLK 0.000292595
6 *664:CLK 0
7 *661:CLK 8.90243e-05
8 *660:CLK 0
9 *658:CLK 0.000488807
10 *672:CLK 0.000354309
11 *657:CLK 0
12 *671:CLK 0.000334558
13 *688:A 0
14 *687:X 1.99857e-05
15 *143:118 0.000452834
16 *143:116 0.000628138
17 *143:114 0.00107206
18 *143:101 0.000716519
19 *143:95 0.000411985
20 *143:80 0.000967302
21 *143:33 0.000530658
22 *143:27 0.00055041
23 *143:25 0.000847867
24 *143:16 0.00106448
25 *143:6 0.00130406
26 *658:CLK *176:10 0.000100625
27 *658:CLK *176:36 6.12335e-05
28 *659:CLK *707:A 0
29 *672:CLK *176:36 5.66157e-05
30 *672:CLK *177:14 0
31 *143:25 *176:36 2.59355e-05
32 *143:33 *616:A2 9.25014e-06
33 *143:33 *176:36 0.000137939
34 *143:33 *176:38 4.66511e-05
35 *143:101 *539:A 9.52477e-05
36 *143:101 *539:B 4.68201e-05
37 *537:A *143:16 5.52238e-05
38 *550:A *143:33 9.60875e-05
39 *581:B *143:16 9.25014e-06
40 *616:A1 *671:CLK 0
41 *616:A1 *143:33 3.17148e-05
42 *617:B *143:16 0.000139019
43 *617:B *143:80 1.38323e-05
44 *621:A *143:33 4.88637e-05
45 *630:B *672:CLK 0.000147089
46 *631:A *672:CLK 0.000328981
47 *632:A *672:CLK 5.40148e-05
48 *651:B *143:114 0
49 *653:B *143:114 0.000134788
50 *654:A *143:101 1.00887e-05
51 *654:A *143:114 0.000112635
52 *655:B *143:95 0.00011307
53 *655:B *143:101 0.000195126
54 *655:B *143:114 5.533e-05
55 *657:SET_B *671:CLK 2.89114e-05
56 *657:SET_B *143:33 5.62995e-05
57 *658:RESET_B *658:CLK 2.51837e-05
58 *660:D *143:25 0.000196592
59 *660:RESET_B *143:25 2.48016e-05
60 *661:D *143:80 1.02504e-05
61 *661:D *143:95 0.000283983
62 *662:D *143:116 7.27949e-05
63 *662:D *143:118 7.32272e-05
64 *662:RESET_B *143:116 2.72654e-05
65 *663:RESET_B *143:114 0.000223808
66 *665:D *143:101 0.000137639
67 *669:D *671:CLK 0.000506335
68 *670:D *671:CLK 0
69 *671:D *671:CLK 1.00375e-05
70 *672:D *672:CLK 0.000183598
71 *672:RESET_B *659:CLK 0
72 *672:RESET_B *672:CLK 7.25873e-06
73 *673:D *659:CLK 0.000241044
74 *673:RESET_B *659:CLK 6.51852e-05
75 *3:23 *672:CLK 0
76 *17:37 *143:114 0.00040381
77 *17:49 *143:114 0.000255276
78 *17:49 *143:116 0.000224521
79 *17:59 *143:116 0.000198623
80 *17:61 *659:CLK 3.69047e-06
81 *17:61 *143:118 5.01338e-05
82 *17:96 *143:114 0
83 *17:108 *143:16 0.000232345
84 *17:108 *143:25 0.000226272
85 *17:122 *658:CLK 0.000110029
86 *17:122 *143:25 0.000288988
87 *49:20 *659:CLK 3.62988e-05
88 *49:20 *671:CLK 0.000387442
89 *59:10 *143:16 6.07232e-05
90 *60:8 *672:CLK 0.000148743
91 *87:16 *143:16 1.34703e-05
92 *94:12 *672:CLK 0.000213635
93 *94:12 *143:33 0.000168939
94 *98:14 *143:16 6.74911e-05
95 *125:8 *143:6 1.04232e-05
96 *125:8 *143:80 0.00044852
97 *136:30 *672:CLK 0
*RES
1 *687:X *143:6 9.72857 
2 *143:6 *143:16 20.75 
3 *143:16 *688:A 9.3 
4 *143:16 *143:25 9.58929 
5 *143:25 *143:27 4.5 
6 *143:27 *143:33 10.0536 
7 *143:33 *671:CLK 28.675 
8 *143:33 *657:CLK 9.3 
9 *143:27 *672:CLK 24.3179 
10 *143:25 *658:CLK 18.4607 
11 *143:25 *660:CLK 9.3 
12 *143:6 *143:80 13.8214 
13 *143:80 *661:CLK 15.175 
14 *143:80 *143:95 11.6071 
15 *143:95 *143:101 8.41071 
16 *143:101 *664:CLK 13.8 
17 *143:101 *143:114 19.0893 
18 *143:114 *143:116 10.8036 
19 *143:116 *143:118 3 
20 *143:118 *659:CLK 24.1036 
21 *143:118 *673:CLK 9.3 
22 *143:116 *662:CLK 9.3 
23 *143:114 *663:CLK 9.3 
24 *143:95 *665:CLK 9.3 
*END

*D_NET *144 0.010451
*CONN
*I *561:A I *D sky130_fd_sc_hd__inv_2
*I *591:A1 I *D sky130_fd_sc_hd__o311a_1
*I *556:A I *D sky130_fd_sc_hd__nand2_1
*I *571:B I *D sky130_fd_sc_hd__nand2_1
*I *543:A I *D sky130_fd_sc_hd__nor2_1
*I *607:A I *D sky130_fd_sc_hd__nor2_1
*I *625:B I *D sky130_fd_sc_hd__nand3_1
*I *606:A1 I *D sky130_fd_sc_hd__o21a_1
*I *674:Q O *D sky130_fd_sc_hd__dfrtp_4
*CAP
1 *561:A 0
2 *591:A1 0
3 *556:A 0
4 *571:B 0.000742493
5 *543:A 0
6 *607:A 0.000390388
7 *625:B 0
8 *606:A1 0.000230088
9 *674:Q 1.56456e-05
10 *144:87 0.000858187
11 *144:81 0.00053973
12 *144:69 0.000878524
13 *144:31 0.00079943
14 *144:12 0.00063913
15 *144:10 0.000515709
16 *144:6 7.68658e-05
17 *606:A1 *564:A 0.000358683
18 *606:A1 *146:59 0
19 *144:69 *591:A2 5.66971e-05
20 *144:81 *556:B 6.3629e-05
21 *144:81 *145:23 0.000139331
22 *543:B *144:87 0.000131821
23 *570:A *571:B 0
24 *571:A *571:B 2.8266e-06
25 *575:A *144:31 0
26 *591:B1 *144:69 6.50382e-05
27 *591:C1 *144:69 5.50052e-05
28 *592:C *144:69 2.11336e-05
29 *592:C *144:81 0.000289204
30 *598:A *144:10 3.41517e-06
31 *598:A *144:69 3.49456e-06
32 *601:B *144:81 6.31653e-05
33 *601:B *144:87 5.33005e-05
34 *603:A1 *144:69 5.33005e-05
35 *603:A2 *144:69 6.05543e-05
36 *603:B1 *144:69 0.000239977
37 *604:A2 *571:B 4.43256e-05
38 *606:A2 *606:A1 0.000573531
39 *607:B *607:A 0.000147895
40 *609:B1 *607:A 9.67754e-05
41 *611:B *571:B 3.39935e-05
42 *612:A *571:B 0.00027218
43 *625:C *607:A 9.83388e-05
44 *626:A *607:A 5.49544e-05
45 *626:B *607:A 1.89507e-06
46 *686:A *571:B 6.70978e-05
47 *686:A *144:87 4.94302e-05
48 *44:10 *144:69 5.66971e-05
49 *45:10 *571:B 0.000438788
50 *46:10 *607:A 1.32056e-05
51 *88:49 *144:6 5.65955e-05
52 *88:49 *144:10 4.48647e-05
53 *88:49 *144:69 2.59355e-05
54 *88:68 *144:69 0.000330406
55 *89:12 *571:B 0.000147913
56 *89:12 *144:87 1.00887e-05
57 *90:49 *144:31 7.26699e-06
58 *105:14 *606:A1 0.000170438
59 *105:14 *144:31 7.7591e-05
60 *105:36 *607:A 1.71482e-05
61 *105:36 *144:31 0.000254448
62 *117:14 *144:31 1.89507e-06
63 *118:6 *607:A 1.0535e-05
64 *136:30 *607:A 0
*RES
1 *674:Q *144:6 9.83571 
2 *144:6 *144:10 1.375 
3 *144:10 *144:12 4.5 
4 *144:12 *606:A1 21.5143 
5 *144:12 *144:31 6.89286 
6 *144:31 *625:B 13.8 
7 *144:31 *607:A 21.0768 
8 *144:10 *144:69 11.9286 
9 *144:69 *144:81 17.6429 
10 *144:81 *144:87 7.28571 
11 *144:87 *543:A 13.8 
12 *144:87 *571:B 34.5321 
13 *144:81 *556:A 9.3 
14 *144:69 *591:A1 9.3 
15 *144:6 *561:A 9.3 
*END

*D_NET *145 0.00150274
*CONN
*I *587:A I *D sky130_fd_sc_hd__inv_2
*I *556:B I *D sky130_fd_sc_hd__nand2_1
*I *544:A I *D sky130_fd_sc_hd__clkbuf_2
*I *675:Q O *D sky130_fd_sc_hd__dfrtp_1
*CAP
1 *587:A 0
2 *556:B 4.03236e-05
3 *544:A 0.000134435
4 *675:Q 0.000173394
5 *145:23 0.000201169
6 *145:6 0.000468674
7 *145:6 *676:D 8.6608e-06
8 *588:B *556:B 2.24804e-05
9 *588:B *145:23 7.69499e-05
10 *601:B *556:B 9.58632e-05
11 *605:A *145:6 2.11336e-05
12 *605:B *145:23 5.66971e-05
13 *144:81 *556:B 6.3629e-05
14 *144:81 *145:23 0.000139331
*RES
1 *675:Q *145:6 11.4786 
2 *145:6 *544:A 20.55 
3 *145:6 *145:23 4.16071 
4 *145:23 *556:B 10.6571 
5 *145:23 *587:A 9.3 
*END

*D_NET *146 0.0119534
*CONN
*I *622:B I *D sky130_fd_sc_hd__nand3_1
*I *560:A1 I *D sky130_fd_sc_hd__o21a_1
*I *573:B I *D sky130_fd_sc_hd__nand2_1
*I *564:A I *D sky130_fd_sc_hd__nor2_1
*I *542:A I *D sky130_fd_sc_hd__inv_6
*I *610:A I *D sky130_fd_sc_hd__nor2_1
*I *609:A1 I *D sky130_fd_sc_hd__a21oi_1
*I *601:A I *D sky130_fd_sc_hd__nor2_1
*I *676:Q O *D sky130_fd_sc_hd__dfrtp_4
*CAP
1 *622:B 2.13113e-05
2 *560:A1 0.000318198
3 *573:B 0.000118574
4 *564:A 0.000335454
5 *542:A 0
6 *610:A 0.000100718
7 *609:A1 9.3539e-06
8 *601:A 0
9 *676:Q 0.000865517
10 *146:59 0.000794597
11 *146:33 0.000228259
12 *146:29 0.00124191
13 *146:16 0.000744636
14 *146:14 0.000495804
15 *146:10 0.000966333
16 *146:8 0.00123779
17 *543:B *560:A1 2.23101e-05
18 *560:B1 *560:A1 0.000266152
19 *564:B *564:A 0.000269349
20 *567:A *564:A 4.33209e-05
21 *570:A *609:A1 2.16833e-05
22 *570:A *610:A 0.000150265
23 *572:B *146:16 0
24 *575:A *146:59 8.36752e-05
25 *590:A1 *573:B 0.000230568
26 *590:A1 *146:14 1.24368e-05
27 *590:A2 *146:14 2.13481e-06
28 *590:B1 *146:8 4.94761e-05
29 *590:B1 *146:10 0.000102631
30 *590:B1 *146:14 1.35465e-05
31 *591:A3 *560:A1 2.65271e-05
32 *591:C1 *560:A1 0.000220357
33 *592:A *146:10 6.62058e-05
34 *600:A *560:A1 4.46186e-06
35 *600:B *560:A1 3.18676e-05
36 *604:B1 *573:B 2.37713e-05
37 *606:A1 *564:A 0.000358683
38 *606:A1 *146:59 0
39 *606:A2 *564:A 6.84921e-05
40 *607:B *146:59 0.000122523
41 *622:C *146:10 5.50052e-05
42 *623:A *146:14 0.000305403
43 *627:C *573:B 0.000126509
44 *676:CLK *146:8 0.000247642
45 *676:RESET_B *146:8 0.000178794
46 *44:10 *573:B 3.14003e-05
47 *44:10 *146:16 0.000121987
48 *47:10 *610:A 2.59355e-05
49 *90:49 *609:A1 1.00332e-05
50 *90:49 *146:29 0.00047427
51 *90:49 *146:33 0.000197391
52 *90:92 *560:A1 0.00027539
53 *101:33 *560:A1 6.13812e-05
54 *103:17 *560:A1 2.32789e-05
55 *112:19 *560:A1 2.89114e-05
56 *136:30 *609:A1 9.59532e-06
57 *136:30 *610:A 7.19312e-05
58 *136:30 *146:33 2.69988e-05
59 *136:30 *146:59 1.26641e-05
*RES
1 *676:Q *146:8 20.9429 
2 *146:8 *146:10 4.64286 
3 *146:10 *146:14 8.32143 
4 *146:14 *146:16 1.64286 
5 *146:16 *601:A 13.8 
6 *146:16 *146:29 4.82627 
7 *146:29 *146:33 3.74527 
8 *146:33 *609:A1 14.0768 
9 *146:33 *610:A 16.4339 
10 *146:29 *146:59 15.7761 
11 *146:59 *542:A 9.3 
12 *146:59 *564:A 17.8 
13 *146:14 *573:B 17.2464 
14 *146:10 *560:A1 28.0679 
15 *146:8 *622:B 9.72857 
*END

*D_NET *147 0.000527154
*CONN
*I *576:B I *D sky130_fd_sc_hd__nand2_1
*I *692:X O *D sky130_fd_sc_hd__clkbuf_1
*CAP
1 *576:B 0.000148339
2 *692:X 0.000148339
3 *576:B *158:16 0.000230475
*RES
1 *692:X *576:B 21.9214 
*END

*D_NET *148 0.00412402
*CONN
*I *711:A I *D sky130_fd_sc_hd__clkbuf_1
*I *618:Y O *D sky130_fd_sc_hd__a211oi_1
*CAP
1 *711:A 0
2 *618:Y 0.00128843
3 *148:18 0.00128843
4 *148:18 *551:A 0
5 *148:18 *157:14 3.54697e-06
6 *148:18 *179:14 0
7 *537:B *148:18 0
8 *577:A2 *148:18 5.9483e-05
9 *617:B *148:18 5.7661e-06
10 *618:A1 *148:18 2.89114e-05
11 *618:B1 *148:18 3.74103e-05
12 *640:B *148:18 0.000163711
13 *641:A *148:18 0.000225374
14 *661:D *148:18 0.000181114
15 *672:D *148:18 1.24368e-05
16 *17:96 *148:18 0.000155683
17 *17:108 *148:18 0.000109809
18 *59:10 *148:18 0
19 *59:14 *148:18 1.12713e-05
20 *59:89 *148:18 2.97489e-05
21 *59:102 *148:18 5.6685e-05
22 *85:12 *148:18 8.52458e-05
23 *86:10 *148:18 1.09026e-05
24 *86:12 *148:18 5.90322e-05
25 *124:10 *148:18 0.000311028
*RES
1 *618:Y *148:18 45.3357 
2 *148:18 *711:A 9.3 
*END

*D_NET *149 0.00129245
*CONN
*I *700:A I *D sky130_fd_sc_hd__buf_4
*I *667:Q O *D sky130_fd_sc_hd__dfrtp_1
*CAP
1 *700:A 0.000311308
2 *667:Q 0.000311308
3 clk_gate_en *700:A 0
4 pwr_gate_en *700:A 4.04664e-05
5 *667:RESET_B *700:A 0.00010096
6 *17:156 *700:A 0.00015234
7 *17:158 *700:A 0.00027438
8 *17:160 *700:A 0.000101689
*RES
1 *667:Q *700:A 35.0464 
*END

*D_NET *150 0.000385652
*CONN
*I *701:A I *D sky130_fd_sc_hd__clkbuf_2
*I *672:Q O *D sky130_fd_sc_hd__dfrtp_1
*CAP
1 *701:A 0.000192826
2 *672:Q 0.000192826
3 pwr_state[0] *701:A 0
*RES
1 *672:Q *701:A 30.4929 
*END

*D_NET *151 0.000336611
*CONN
*I *702:A I *D sky130_fd_sc_hd__clkbuf_2
*I *673:Q O *D sky130_fd_sc_hd__dfrtp_1
*CAP
1 *702:A 0.000168306
2 *673:Q 0.000168306
*RES
1 *673:Q *702:A 29.8857 
*END

*D_NET *152 0.000191401
*CONN
*I *703:A I *D sky130_fd_sc_hd__buf_2
*I *671:Q O *D sky130_fd_sc_hd__dfrtp_1
*CAP
1 *703:A 9.57007e-05
2 *671:Q 9.57007e-05
3 reset_ctrl *703:A 0
*RES
1 *671:Q *703:A 29.2429 
*END

*D_NET *153 0.00085575
*CONN
*I *704:A I *D sky130_fd_sc_hd__buf_4
*I *668:Q O *D sky130_fd_sc_hd__dfrtp_1
*CAP
1 *704:A 0.000354711
2 *668:Q 0.000354711
3 *668:CLK *704:A 9.90367e-05
4 *668:D *704:A 4.72917e-05
5 *142:65 *704:A 0
6 *142:76 *704:A 0
*RES
1 *668:Q *704:A 32.5464 
*END

*D_NET *154 0.000182482
*CONN
*I *705:A I *D sky130_fd_sc_hd__buf_2
*I *670:Q O *D sky130_fd_sc_hd__dfrtp_1
*CAP
1 *705:A 9.12412e-05
2 *670:Q 9.12412e-05
*RES
1 *670:Q *705:A 29.2429 
*END

*D_NET *155 0.000194674
*CONN
*I *706:A I *D sky130_fd_sc_hd__buf_2
*I *669:Q O *D sky130_fd_sc_hd__dfrtp_1
*CAP
1 *706:A 7.74707e-05
2 *669:Q 7.74707e-05
3 retention_save *706:A 3.9733e-05
*RES
1 *669:Q *706:A 29.2429 
*END

*D_NET *156 0.00169728
*CONN
*I *712:A I *D sky130_fd_sc_hd__buf_1
*I *558:Y O *D sky130_fd_sc_hd__nor2_1
*CAP
1 *712:A 0.000522203
2 *558:Y 0.000522203
3 *712:A *549:A 7.92229e-06
4 *712:A *616:A2 0
5 *712:A *159:10 9.91033e-05
6 *550:A *712:A 5.60777e-05
7 *550:B *712:A 1.24368e-05
8 *554:A *712:A 0.000311293
9 *570:B *712:A 7.44262e-05
10 *571:A *712:A 4.13122e-06
11 *608:A *712:A 0
12 *616:A1 *712:A 0
13 *616:B1 *712:A 6.19837e-05
14 *96:8 *712:A 1.46148e-05
15 *136:30 *712:A 1.08847e-05
*RES
1 *558:Y *712:A 38.0643 
*END

*D_NET *157 0.0038689
*CONN
*I *699:A I *D sky130_fd_sc_hd__clkbuf_2
*I *711:X O *D sky130_fd_sc_hd__clkbuf_1
*CAP
1 *699:A 0
2 *711:X 0.00129146
3 *157:14 0.00129146
4 *157:14 *707:A 0.000624791
5 *157:14 *177:14 0.000263558
6 seq_busy *157:14 0.000144773
7 *659:RESET_B *157:14 0
8 *672:D *157:14 6.67587e-06
9 *59:47 *157:14 0.000242632
10 *148:18 *157:14 3.54697e-06
*RES
1 *711:X *157:14 43.2821 
2 *157:14 *699:A 9.3 
*END

*D_NET *158 0.00319597
*CONN
*I *576:A I *D sky130_fd_sc_hd__nand2_1
*I *693:X O *D sky130_fd_sc_hd__clkbuf_1
*CAP
1 *576:A 0
2 *693:X 0.00146958
3 *158:16 0.00146958
4 *576:B *158:16 0.000230475
5 *692:A *158:16 2.63433e-05
*RES
1 *693:X *158:16 45.7643 
2 *158:16 *576:A 9.3 
*END

*D_NET *159 0.00865839
*CONN
*I *707:A I *D sky130_fd_sc_hd__clkbuf_2
*I *643:A I *D sky130_fd_sc_hd__nand3_1
*I *620:A I *D sky130_fd_sc_hd__nand2_1
*I *619:B I *D sky130_fd_sc_hd__or2_1
*I *712:X O *D sky130_fd_sc_hd__buf_1
*CAP
1 *707:A 0.000432936
2 *643:A 0.00128636
3 *620:A 0.00010336
4 *619:B 0
5 *712:X 0.000156288
6 *159:44 0.00194661
7 *159:31 0.000866031
8 *159:10 0.000691643
9 *643:A *180:12 5.54817e-06
10 *159:10 *616:A2 4.81157e-05
11 *159:10 *176:38 5.80706e-06
12 *159:31 *536:B 9.99644e-06
13 *159:31 *176:36 3.69697e-05
14 *159:31 *176:38 2.26327e-05
15 *550:A *159:10 8.97632e-06
16 *621:A *159:31 0.000141375
17 *621:B *620:A 0
18 *628:A *620:A 1.74352e-05
19 *628:B *620:A 0
20 *629:B *159:31 9.90431e-05
21 *630:A *159:31 9.69119e-06
22 *630:A *159:44 6.53137e-05
23 *630:B *159:31 2.31791e-05
24 *631:B *159:44 7.39178e-05
25 *642:B *643:A 4.51556e-05
26 *659:CLK *707:A 0
27 *672:RESET_B *707:A 0.00025974
28 *672:RESET_B *159:44 0.000219764
29 *673:D *707:A 0
30 *712:A *159:10 9.91033e-05
31 *3:23 *707:A 1.78353e-05
32 *3:23 *159:44 8.15665e-05
33 *17:122 *159:31 0.000219289
34 *49:20 *159:31 0
35 *49:20 *159:44 0.000120499
36 *52:6 *620:A 5.71472e-05
37 *52:6 *159:31 8.57023e-05
38 *59:35 *643:A 0.000150917
39 *59:47 *707:A 8.89385e-05
40 *59:55 *643:A 4.97967e-05
41 *59:55 *707:A 0.000166135
42 *59:55 *159:44 2.80728e-05
43 *94:12 *159:31 0.000292715
44 *157:14 *707:A 0.000624791
*RES
1 *712:X *159:10 16.1929 
2 *159:10 *619:B 13.8 
3 *159:10 *159:31 23.5714 
4 *159:31 *620:A 10.9786 
5 *159:31 *159:44 11.9107 
6 *159:44 *643:A 38.8357 
7 *159:44 *707:A 26.4786 
*END

*D_NET *160 0.00046669
*CONN
*I *694:A I *D sky130_fd_sc_hd__clkbuf_1
*I *689:X O *D sky130_fd_sc_hd__dlygate4sd3_1
*CAP
1 *694:A 0.000233345
2 *689:X 0.000233345
3 *689:A *694:A 0
*RES
1 *689:X *694:A 30.9036 
*END

*D_NET *161 0.0001653
*CONN
*I *695:A I *D sky130_fd_sc_hd__clkbuf_1
*I *690:X O *D sky130_fd_sc_hd__dlygate4sd3_1
*CAP
1 *695:A 7.12791e-05
2 *690:X 7.12791e-05
3 *695:A *678:D 2.27416e-05
*RES
1 *690:X *695:A 19.9571 
*END

*D_NET *162 0.000308158
*CONN
*I *696:A I *D sky130_fd_sc_hd__clkbuf_1
*I *691:X O *D sky130_fd_sc_hd__dlygate4sd3_1
*CAP
1 *696:A 0.000154079
2 *691:X 0.000154079
*RES
1 *691:X *696:A 21.1893 
*END

*D_NET *163 0.000374073
*CONN
*I *680:D I *D sky130_fd_sc_hd__dfrtp_1
*I *694:X O *D sky130_fd_sc_hd__clkbuf_1
*CAP
1 *680:D 0.000160879
2 *694:X 0.000160879
3 *680:CLK *680:D 5.23142e-05
4 *17:170 *680:D 0
*RES
1 *694:X *680:D 20.7964 
*END

*D_NET *164 0.000506495
*CONN
*I *678:D I *D sky130_fd_sc_hd__dfrtp_1
*I *695:X O *D sky130_fd_sc_hd__clkbuf_1
*CAP
1 *678:D 0.000241877
2 *695:X 0.000241877
3 *677:RESET_B *678:D 0
4 *695:A *678:D 2.27416e-05
*RES
1 *695:X *678:D 31.0107 
*END

*D_NET *165 0.0012387
*CONN
*I *679:D I *D sky130_fd_sc_hd__dfrtp_1
*I *696:X O *D sky130_fd_sc_hd__clkbuf_1
*CAP
1 *679:D 0.000333412
2 *696:X 0.000333412
3 *679:D *562:A 0.000123131
4 *667:D *679:D 0.000259031
5 *679:RESET_B *679:D 4.8474e-05
6 *17:184 *679:D 0
7 *142:33 *679:D 0.000141241
*RES
1 *696:X *679:D 35.9393 
*END

*D_NET *166 0.003814
*CONN
*I *582:A I *D sky130_fd_sc_hd__inv_2
*I *697:X O *D sky130_fd_sc_hd__buf_1
*CAP
1 *582:A 0.000897394
2 *697:X 0.00100351
3 *166:10 0.0019009
4 *697:A *166:10 1.21955e-05
*RES
1 *697:X *166:10 36.9429 
2 *166:10 *582:A 23.8 
*END

*D_NET *167 0.00168804
*CONN
*I *677:D I *D sky130_fd_sc_hd__dfrtp_1
*I *698:X O *D sky130_fd_sc_hd__clkbuf_1
*CAP
1 *677:D 0.000818191
2 *698:X 0.000818191
3 *677:CLK *677:D 2.27416e-05
4 *698:A *677:D 2.89114e-05
*RES
1 *698:X *677:D 28.1893 
*END

*D_NET *168 0.000526373
*CONN
*I *708:A I *D sky130_fd_sc_hd__buf_4
*I *666:Q O *D sky130_fd_sc_hd__dfrtp_1
*CAP
1 *708:A 0.000263187
2 *666:Q 0.000263187
3 *17:156 *708:A 0
4 *17:158 *708:A 0
*RES
1 *666:Q *708:A 31.6714 
*END

*D_NET *169 0.000615154
*CONN
*I *709:A I *D sky130_fd_sc_hd__clkbuf_2
*I *657:Q O *D sky130_fd_sc_hd__dfstp_1
*CAP
1 *709:A 0.000307577
2 *657:Q 0.000307577
3 dvfs_ctrl[1] *709:A 0
4 *658:D *709:A 0
*RES
1 *657:Q *709:A 32.7161 
*END

*D_NET *170 0.000710858
*CONN
*I *674:D I *D sky130_fd_sc_hd__dfrtp_4
*I *575:Y O *D sky130_fd_sc_hd__inv_2
*CAP
1 *674:D 0.000311327
2 *575:Y 0.000311327
3 *674:RESET_B *674:D 8.82043e-05
*RES
1 *575:Y *674:D 32.9571 
*END

*D_NET *171 0.00162951
*CONN
*I *675:D I *D sky130_fd_sc_hd__dfrtp_1
*I *593:X O *D sky130_fd_sc_hd__clkbuf_1
*CAP
1 *675:D 0.000814757
2 *593:X 0.000814757
*RES
1 *593:X *675:D 38.1893 
*END

*D_NET *172 0.000838854
*CONN
*I *676:D I *D sky130_fd_sc_hd__dfrtp_4
*I *605:Y O *D sky130_fd_sc_hd__nand2_1
*CAP
1 *676:D 0.000351007
2 *605:Y 0.000351007
3 *605:A *676:D 2.85234e-05
4 *676:RESET_B *676:D 9.96553e-05
5 *145:6 *676:D 8.6608e-06
*RES
1 *605:Y *676:D 32.35 
*END

*D_NET *173 0.000775177
*CONN
*I *562:A I *D sky130_fd_sc_hd__inv_2
*I *684:Q O *D sky130_fd_sc_hd__dfrtp_1
*CAP
1 *562:A 0.000312097
2 *684:Q 0.000312097
3 *679:D *562:A 0.000123131
4 *17:196 *562:A 2.78512e-05
*RES
1 *684:Q *562:A 32.7429 
*END

*D_NET *174 0.00226949
*CONN
*I *559:A I *D sky130_fd_sc_hd__inv_2
*I *602:C I *D sky130_fd_sc_hd__nand3_1
*I *682:Q O *D sky130_fd_sc_hd__dfrtp_1
*CAP
1 *559:A 0
2 *602:C 0.000431066
3 *682:Q 0.000378577
4 *174:12 0.000809642
5 *174:12 *565:A 3.18676e-05
6 *563:A *602:C 0
7 *566:A *602:C 2.27416e-05
8 *566:C *602:C 5.33334e-05
9 *599:A *602:C 0.000199009
10 *17:200 *174:12 0.000129293
11 *17:213 *174:12 2.72967e-05
12 *109:12 *174:12 0.000186669
*RES
1 *682:Q *174:12 26.0143 
2 *174:12 *602:C 16.7821 
3 *174:12 *559:A 9.3 
*END

*D_NET *175 0.000126601
*CONN
*I *565:A I *D sky130_fd_sc_hd__inv_2
*I *683:Q O *D sky130_fd_sc_hd__dfrtp_1
*CAP
1 *565:A 3.14326e-05
2 *683:Q 3.14326e-05
3 *17:200 *565:A 3.18676e-05
4 *174:12 *565:A 3.18676e-05
*RES
1 *683:Q *565:A 19.5643 
*END

*D_NET *176 0.004058
*CONN
*I *549:A I *D sky130_fd_sc_hd__inv_2
*I *619:A I *D sky130_fd_sc_hd__or2_1
*I *616:A2 I *D sky130_fd_sc_hd__o211a_1
*I *620:B I *D sky130_fd_sc_hd__nand2_1
*I *536:B I *D sky130_fd_sc_hd__nand2_1
*I *658:Q O *D sky130_fd_sc_hd__dfrtp_1
*CAP
1 *549:A 0.000309618
2 *619:A 0
3 *616:A2 0.000154653
4 *620:B 2.53779e-05
5 *536:B 0.000348558
6 *658:Q 0
7 *176:38 0.000175186
8 *176:36 0.000585035
9 *176:10 0.000554322
10 *176:4 0.00043527
11 *550:A *549:A 0.000269385
12 *616:A1 *616:A2 0.000162209
13 *616:B1 *616:A2 1.02132e-05
14 *621:A *620:B 1.88048e-05
15 *621:A *176:10 3.34672e-05
16 *628:A *536:B 9.90431e-05
17 *629:B *536:B 2.95726e-05
18 *658:CLK *176:10 0.000100625
19 *658:CLK *176:36 6.12335e-05
20 *672:CLK *176:36 5.66157e-05
21 *712:A *549:A 7.92229e-06
22 *712:A *616:A2 0
23 *49:20 *620:B 1.69115e-05
24 *49:20 *176:10 3.79467e-05
25 *94:8 *536:B 6.85025e-05
26 *96:8 *549:A 9.83388e-05
27 *136:30 *549:A 5.58941e-05
28 *136:30 *176:36 0
29 *143:25 *176:36 2.59355e-05
30 *143:33 *616:A2 9.25014e-06
31 *143:33 *176:36 0.000137939
32 *143:33 *176:38 4.66511e-05
33 *159:10 *616:A2 4.81157e-05
34 *159:10 *176:38 5.80706e-06
35 *159:31 *536:B 9.99644e-06
36 *159:31 *176:36 3.69697e-05
37 *159:31 *176:38 2.26327e-05
*RES
1 *658:Q *176:4 9.3 
2 *176:4 *176:10 7.60714 
3 *176:10 *536:B 19.5857 
4 *176:10 *620:B 14.5321 
5 *176:4 *176:36 8.82143 
6 *176:36 *176:38 0.732143 
7 *176:38 *616:A2 17.7286 
8 *176:38 *619:A 13.8 
9 *176:36 *549:A 27.3536 
*END

*D_NET *177 0.00201321
*CONN
*I *548:A I *D sky130_fd_sc_hd__inv_2
*I *536:A I *D sky130_fd_sc_hd__nand2_1
*I *659:Q O *D sky130_fd_sc_hd__dfrtp_1
*CAP
1 *548:A 0
2 *536:A 2.44672e-05
3 *659:Q 0.000632023
4 *177:14 0.00065649
5 *631:A *177:14 0
6 *645:A *177:14 1.97361e-05
7 *672:CLK *177:14 0
8 *60:8 *177:14 0
9 *82:12 *536:A 5.65955e-05
10 *82:12 *177:14 5.49489e-05
11 *136:30 *177:14 0.000305391
12 *157:14 *177:14 0.000263558
*RES
1 *659:Q *177:14 29.9429 
2 *177:14 *536:A 9.83571 
3 *177:14 *548:A 9.3 
*END

*D_NET *178 0.00242592
*CONN
*I *535:B I *D sky130_fd_sc_hd__nor2_1
*I *579:B I *D sky130_fd_sc_hd__nand2_1
*I *633:A I *D sky130_fd_sc_hd__inv_2
*I *553:A I *D sky130_fd_sc_hd__or3_1
*I *585:A1 I *D sky130_fd_sc_hd__a21oi_1
*I *660:Q O *D sky130_fd_sc_hd__dfrtp_1
*CAP
1 *535:B 9.02497e-05
2 *579:B 5.41538e-06
3 *633:A 0
4 *553:A 0
5 *585:A1 0.000176103
6 *660:Q 0
7 *178:45 0.000158788
8 *178:34 0.000269791
9 *178:8 0.000266325
10 *178:6 0.00029689
11 *535:B *535:A 8.2787e-06
12 *535:B *579:A 7.12783e-05
13 *579:B *579:A 2.13915e-06
14 *553:C *585:A1 1.11845e-05
15 *553:C *178:8 2.84019e-05
16 *637:B *178:34 5.49544e-05
17 *637:B *178:45 0.00034801
18 *660:D *178:34 0
19 *687:A *585:A1 0
20 *17:108 *178:34 3.71887e-05
21 *82:12 *535:B 0.000167597
22 *82:12 *178:34 5.49544e-05
23 *82:12 *178:45 0.000378369
24 *136:30 *585:A1 0
25 *136:30 *178:8 0
26 *136:30 *178:34 0
*RES
1 *660:Q *178:6 13.8 
2 *178:6 *178:8 1.64286 
3 *178:8 *585:A1 16.7286 
4 *178:8 *553:A 13.8 
5 *178:6 *178:34 8.5 
6 *178:34 *633:A 9.3 
7 *178:34 *178:45 4.09821 
8 *178:45 *579:B 9.60357 
9 *178:45 *535:B 12.9607 
*END

*D_NET *179 0.00120831
*CONN
*I *551:A I *D sky130_fd_sc_hd__inv_2
*I *535:A I *D sky130_fd_sc_hd__nor2_1
*I *579:A I *D sky130_fd_sc_hd__nand2_1
*I *661:Q O *D sky130_fd_sc_hd__dfrtp_1
*CAP
1 *551:A 8.47335e-05
2 *535:A 1.2327e-05
3 *579:A 0.000109146
4 *661:Q 8.08271e-05
5 *179:14 0.000265608
6 *179:8 0.000309695
7 *535:B *535:A 8.2787e-06
8 *535:B *579:A 7.12783e-05
9 *537:B *179:14 3.34366e-05
10 *579:B *579:A 2.13915e-06
11 *580:B *179:14 5.99898e-05
12 *59:10 *551:A 3.36121e-05
13 *59:10 *179:14 1.03182e-05
14 *82:12 *535:A 3.08382e-06
15 *82:12 *579:A 7.49387e-06
16 *82:12 *179:14 2.9561e-05
17 *84:12 *551:A 1.00887e-05
18 *123:8 *579:A 5.52302e-05
19 *123:8 *179:14 2.14658e-05
20 *148:18 *551:A 0
21 *148:18 *179:14 0
*RES
1 *661:Q *179:8 14.7464 
2 *179:8 *179:14 7.30357 
3 *179:14 *579:A 12.0232 
4 *179:14 *535:A 9.72857 
5 *179:8 *551:A 15.4429 
*END

*D_NET *180 0.00192316
*CONN
*I *538:B I *D sky130_fd_sc_hd__nor2_1
*I *643:B I *D sky130_fd_sc_hd__nand3_1
*I *642:A_N I *D sky130_fd_sc_hd__nand2b_1
*I *662:Q O *D sky130_fd_sc_hd__dfrtp_1
*CAP
1 *538:B 0.000225167
2 *643:B 0
3 *642:A_N 0
4 *662:Q 0.000311753
5 *180:21 0.000303091
6 *180:12 0.000389677
7 *642:B *180:12 9.15842e-06
8 *643:A *180:12 5.54817e-06
9 *643:C *538:B 5.33005e-05
10 *644:B *180:21 9.84729e-05
11 *17:49 *180:12 0.000317039
12 *59:35 *180:12 1.70335e-05
13 *71:21 *538:B 9.67754e-05
14 *71:21 *180:21 4.17702e-05
15 *74:14 *538:B 2.11048e-05
16 *74:25 *538:B 3.32737e-05
*RES
1 *662:Q *180:12 22.9429 
2 *180:12 *642:A_N 9.3 
3 *180:12 *180:21 1.78571 
4 *180:21 *643:B 9.3 
5 *180:21 *538:B 13.55 
*END

*D_NET *181 0.00058943
*CONN
*I *646:A I *D sky130_fd_sc_hd__inv_2
*I *538:A I *D sky130_fd_sc_hd__nor2_1
*I *663:Q O *D sky130_fd_sc_hd__dfrtp_1
*CAP
1 *646:A 0
2 *538:A 5.65889e-05
3 *663:Q 0.000151122
4 *181:12 0.000207711
5 *663:RESET_B *181:12 5.33433e-05
6 *17:96 *181:12 4.18562e-05
7 *74:25 *538:A 7.88091e-05
*RES
1 *663:Q *181:12 20.8893 
2 *181:12 *538:A 10.6571 
3 *181:12 *646:A 9.3 
*END

*D_NET *182 0.00267313
*CONN
*I *651:A I *D sky130_fd_sc_hd__or2_1
*I *539:A I *D sky130_fd_sc_hd__nor2_1
*I *652:B I *D sky130_fd_sc_hd__nand2_1
*I *664:Q O *D sky130_fd_sc_hd__dfrtp_1
*CAP
1 *651:A 0.000103696
2 *539:A 0.000117773
3 *652:B 5.89403e-05
4 *664:Q 0.000456153
5 *182:10 0.000357264
6 *182:6 0.0007404
7 *654:A *539:A 3.2923e-05
8 *654:B *539:A 0.000148837
9 *655:B *539:A 6.94441e-06
10 *656:A *539:A 5.54817e-06
11 *664:D *652:B 6.05161e-06
12 *664:D *182:10 0.00010996
13 *664:RESET_B *182:6 0.000136772
14 *665:D *539:A 2.85234e-05
15 *74:25 *652:B 3.49456e-06
16 *78:8 *652:B 9.84673e-05
17 *78:8 *182:10 0.000135028
18 *85:12 *539:A 3.11088e-05
19 *143:101 *539:A 9.52477e-05
*RES
1 *664:Q *182:6 14.7643 
2 *182:6 *182:10 3.83929 
3 *182:10 *652:B 10.675 
4 *182:10 *539:A 21.9964 
5 *182:6 *651:A 19.6393 
*END

*D_NET *183 0.00200012
*CONN
*I *655:A I *D sky130_fd_sc_hd__xor2_1
*I *539:B I *D sky130_fd_sc_hd__nor2_1
*I *665:Q O *D sky130_fd_sc_hd__dfrtp_1
*CAP
1 *655:A 9.59959e-05
2 *539:B 0.000305587
3 *665:Q 0.000522083
4 *183:6 0.000923666
5 *665:D *539:B 5.59275e-05
6 *665:RESET_B *183:6 5.00444e-05
7 *143:101 *539:B 4.68201e-05
*RES
1 *665:Q *183:6 15.5857 
2 *183:6 *539:B 13.4429 
3 *183:6 *655:A 19.9429 
*END

*D_NET *184 0.00205992
*CONN
*I *681:D I *D sky130_fd_sc_hd__dfrtp_1
*I *677:Q O *D sky130_fd_sc_hd__dfrtp_1
*CAP
1 *681:D 0.00102092
2 *677:Q 0.00102092
3 *681:D *682:D 0
4 *677:RESET_B *681:D 1.20244e-05
5 *681:CLK *681:D 6.05161e-06
6 *17:227 *681:D 0
*RES
1 *677:Q *681:D 42.5643 
*END

*D_NET *185 0.00070068
*CONN
*I *682:D I *D sky130_fd_sc_hd__dfrtp_1
*I *678:Q O *D sky130_fd_sc_hd__dfrtp_1
*CAP
1 *682:D 0.000266497
2 *678:Q 0.000266497
3 *677:CLK *682:D 2.50656e-05
4 *681:D *682:D 0
5 *142:14 *682:D 2.77154e-05
6 *142:29 *682:D 0.000114906
*RES
1 *678:Q *682:D 32.85 
*END

*D_NET *186 0.000686793
*CONN
*I *683:D I *D sky130_fd_sc_hd__dfrtp_1
*I *679:Q O *D sky130_fd_sc_hd__dfrtp_1
*CAP
1 *683:D 0.000182783
2 *679:Q 0.000182783
3 *667:D *683:D 4.13477e-05
4 *683:CLK *683:D 9.91086e-05
5 *17:196 *683:D 0.00018077
*RES
1 *679:Q *683:D 31.6179 
*END

*D_NET *187 0.000594728
*CONN
*I *684:D I *D sky130_fd_sc_hd__dfrtp_1
*I *680:Q O *D sky130_fd_sc_hd__dfrtp_1
*CAP
1 *684:D 0.000185701
2 *680:Q 0.000185701
3 *684:CLK *684:D 0.00018051
4 *17:170 *684:D 4.28162e-05
*RES
1 *680:Q *684:D 22.0464 
*END

*D_NET *188 0.00148774
*CONN
*I *591:A2 I *D sky130_fd_sc_hd__o311a_1
*I *568:A I *D sky130_fd_sc_hd__inv_2
*I *681:Q O *D sky130_fd_sc_hd__dfrtp_1
*CAP
1 *591:A2 0.000245587
2 *568:A 3.47624e-05
3 *681:Q 0.000362271
4 *188:12 0.00064262
5 *592:C *591:A2 2.33087e-05
6 *603:B1 *591:A2 5.49995e-05
7 *17:237 *591:A2 0
8 *17:237 *188:12 6.74911e-05
9 *103:17 *591:A2 0
10 *144:69 *591:A2 5.66971e-05
*RES
1 *681:Q *188:12 24.5857 
2 *188:12 *568:A 9.83571 
3 *188:12 *591:A2 22.7286 
*END
