*SPEF "ieee 1481-1999"
*DESIGN "pmu_fsm"
*DATE "02:47:05 Tuesday October 14, 2025"
*VENDOR "The OpenROAD Project"
*PROGRAM "OpenROAD"
*VERSION "b16bda7e82721d10566ff7e2b68f1ff0be9f9e38"
*DESIGN_FLOW "NAME_SCOPE LOCAL" "PIN_CAP NONE"
*DIVIDER /
*DELIMITER :
*BUS_DELIMITER []
*T_UNIT 1 NS
*C_UNIT 1 PF
*R_UNIT 1 OHM
*L_UNIT 1 HENRY

*NAME_MAP
*3 clk
*4 clk_gate_en
*5 clk_stable
*6 net21
*7 dvfs_ctrl[1]
*8 error
*9 pwr_gate_en
*10 pwr_stable
*11 pwr_state[0]
*12 pwr_state[1]
*13 req_idle
*14 req_off
*15 req_sleep
*16 reset_ctrl
*17 reset_n
*18 retention_en
*19 retention_ready
*20 retention_restore
*21 retention_save
*22 seq_busy
*23 wake_up
*24 _000_
*25 _001_
*26 _002_
*27 _003_
*28 _004_
*29 _005_
*30 _006_
*31 _007_
*32 _008_
*33 _009_
*34 _010_
*35 _011_
*36 _012_
*37 _013_
*38 _014_
*39 _015_
*40 _016_
*41 _017_
*42 _018_
*43 _019_
*44 _020_
*45 _021_
*46 _022_
*47 _023_
*48 _024_
*49 _025_
*50 _026_
*51 _027_
*52 _028_
*53 _029_
*54 _030_
*55 _031_
*56 _032_
*57 _033_
*58 _034_
*59 _035_
*60 _036_
*61 _037_
*62 _038_
*63 _039_
*64 _040_
*65 _041_
*66 _042_
*67 _043_
*68 _044_
*69 _045_
*70 _046_
*71 _047_
*72 _048_
*73 _049_
*74 _050_
*75 _051_
*76 _052_
*77 _053_
*78 _054_
*79 _055_
*80 _056_
*81 _057_
*82 _058_
*83 _059_
*84 _060_
*85 _061_
*86 _062_
*87 _063_
*88 _064_
*89 _065_
*90 _066_
*91 _067_
*92 _068_
*93 _069_
*94 _070_
*95 _071_
*96 _072_
*97 _073_
*98 _074_
*99 _075_
*100 _076_
*101 _077_
*102 _078_
*103 _079_
*104 _080_
*105 _081_
*106 _082_
*107 _083_
*108 _084_
*109 _085_
*110 _086_
*111 _087_
*112 _088_
*113 _089_
*114 _090_
*115 _091_
*116 _092_
*117 _093_
*118 _094_
*119 _095_
*120 _096_
*121 _097_
*122 _098_
*123 _099_
*124 _100_
*125 _101_
*126 _102_
*127 _103_
*128 _104_
*129 _105_
*130 _106_
*131 _107_
*132 _108_
*133 _109_
*134 _110_
*135 _111_
*136 _112_
*137 _113_
*138 _114_
*139 _115_
*140 _116_
*141 clknet_0_clk
*142 clknet_1_0__leaf_clk
*143 clknet_1_1__leaf_clk
*144 curr_state\[0\]
*145 curr_state\[1\]
*146 curr_state\[2\]
*147 net1
*148 net10
*149 net11
*150 net12
*151 net13
*152 net14
*153 net15
*154 net16
*155 net17
*156 net18
*157 net19
*158 net2
*159 net20
*160 net3
*161 net4
*162 net5
*163 net6
*164 net7
*165 net8
*166 net9
*167 next_state\[0\]
*168 next_state\[1\]
*169 next_state\[2\]
*170 req_idle_sync
*171 req_off_sync
*172 req_sleep_sync
*173 seq_timer\[0\]
*174 seq_timer\[1\]
*175 seq_timer\[2\]
*176 seq_timer\[3\]
*177 seq_timer\[4\]
*178 seq_timer\[5\]
*179 seq_timer\[6\]
*180 seq_timer\[7\]
*181 sync_stage1\[0\]
*182 sync_stage1\[1\]
*183 sync_stage1\[2\]
*184 sync_stage1\[3\]
*185 wake_up_sync
*186 FILLER_0_0_105
*187 FILLER_0_0_111
*188 FILLER_0_0_113
*189 FILLER_0_0_121
*190 FILLER_0_0_126
*191 FILLER_0_0_27
*192 FILLER_0_0_3
*193 FILLER_0_0_52
*194 FILLER_0_0_57
*195 FILLER_0_0_69
*196 FILLER_0_10_100
*197 FILLER_0_10_112
*198 FILLER_0_10_124
*199 FILLER_0_10_18
*200 FILLER_0_10_25
*201 FILLER_0_10_29
*202 FILLER_0_10_33
*203 FILLER_0_10_37
*204 FILLER_0_10_41
*205 FILLER_0_10_53
*206 FILLER_0_10_57
*207 FILLER_0_10_7
*208 FILLER_0_10_88
*209 FILLER_0_11_109
*210 FILLER_0_11_11
*211 FILLER_0_11_113
*212 FILLER_0_11_120
*213 FILLER_0_11_124
*214 FILLER_0_11_17
*215 FILLER_0_11_23
*216 FILLER_0_11_27
*217 FILLER_0_11_3
*218 FILLER_0_11_33
*219 FILLER_0_11_37
*220 FILLER_0_11_49
*221 FILLER_0_11_55
*222 FILLER_0_11_57
*223 FILLER_0_11_85
*224 FILLER_0_11_97
*225 FILLER_0_12_100
*226 FILLER_0_12_112
*227 FILLER_0_12_124
*228 FILLER_0_12_18
*229 FILLER_0_12_26
*230 FILLER_0_12_37
*231 FILLER_0_12_49
*232 FILLER_0_12_6
*233 FILLER_0_12_61
*234 FILLER_0_12_67
*235 FILLER_0_12_83
*236 FILLER_0_12_88
*237 FILLER_0_13_103
*238 FILLER_0_13_111
*239 FILLER_0_13_113
*240 FILLER_0_13_125
*241 FILLER_0_13_24
*242 FILLER_0_13_28
*243 FILLER_0_13_43
*244 FILLER_0_13_83
*245 FILLER_0_13_87
*246 FILLER_0_13_91
*247 FILLER_0_14_109
*248 FILLER_0_14_121
*249 FILLER_0_14_127
*250 FILLER_0_14_29
*251 FILLER_0_14_3
*252 FILLER_0_14_7
*253 FILLER_0_14_80
*254 FILLER_0_14_85
*255 FILLER_0_14_97
*256 FILLER_0_15_102
*257 FILLER_0_15_110
*258 FILLER_0_15_113
*259 FILLER_0_15_125
*260 FILLER_0_15_18
*261 FILLER_0_15_32
*262 FILLER_0_15_44
*263 FILLER_0_15_51
*264 FILLER_0_15_55
*265 FILLER_0_15_57
*266 FILLER_0_15_68
*267 FILLER_0_15_7
*268 FILLER_0_15_90
*269 FILLER_0_16_109
*270 FILLER_0_16_121
*271 FILLER_0_16_127
*272 FILLER_0_16_19
*273 FILLER_0_16_23
*274 FILLER_0_16_27
*275 FILLER_0_16_29
*276 FILLER_0_16_37
*277 FILLER_0_16_51
*278 FILLER_0_16_58
*279 FILLER_0_16_7
*280 FILLER_0_16_72
*281 FILLER_0_16_85
*282 FILLER_0_16_97
*283 FILLER_0_17_106
*284 FILLER_0_17_113
*285 FILLER_0_17_125
*286 FILLER_0_17_23
*287 FILLER_0_17_28
*288 FILLER_0_17_36
*289 FILLER_0_17_41
*290 FILLER_0_17_53
*291 FILLER_0_17_57
*292 FILLER_0_17_64
*293 FILLER_0_17_70
*294 FILLER_0_17_82
*295 FILLER_0_17_86
*296 FILLER_0_17_94
*297 FILLER_0_18_107
*298 FILLER_0_18_119
*299 FILLER_0_18_127
*300 FILLER_0_18_15
*301 FILLER_0_18_22
*302 FILLER_0_18_29
*303 FILLER_0_18_3
*304 FILLER_0_18_41
*305 FILLER_0_18_53
*306 FILLER_0_18_59
*307 FILLER_0_18_66
*308 FILLER_0_18_85
*309 FILLER_0_19_104
*310 FILLER_0_19_113
*311 FILLER_0_19_125
*312 FILLER_0_19_13
*313 FILLER_0_19_35
*314 FILLER_0_19_47
*315 FILLER_0_19_7
*316 FILLER_0_19_73
*317 FILLER_0_19_77
*318 FILLER_0_1_108
*319 FILLER_0_1_113
*320 FILLER_0_1_15
*321 FILLER_0_1_57
*322 FILLER_0_1_69
*323 FILLER_0_1_75
*324 FILLER_0_1_96
*325 FILLER_0_20_108
*326 FILLER_0_20_120
*327 FILLER_0_20_23
*328 FILLER_0_20_49
*329 FILLER_0_20_75
*330 FILLER_0_20_83
*331 FILLER_0_20_85
*332 FILLER_0_20_96
*333 FILLER_0_21_109
*334 FILLER_0_21_11
*335 FILLER_0_21_113
*336 FILLER_0_21_23
*337 FILLER_0_21_27
*338 FILLER_0_21_29
*339 FILLER_0_21_41
*340 FILLER_0_21_53
*341 FILLER_0_21_57
*342 FILLER_0_21_62
*343 FILLER_0_21_74
*344 FILLER_0_21_82
*345 FILLER_0_21_85
*346 FILLER_0_21_97
*347 FILLER_0_2_106
*348 FILLER_0_2_118
*349 FILLER_0_2_126
*350 FILLER_0_2_23
*351 FILLER_0_2_27
*352 FILLER_0_2_29
*353 FILLER_0_2_41
*354 FILLER_0_2_47
*355 FILLER_0_2_51
*356 FILLER_0_2_55
*357 FILLER_0_2_79
*358 FILLER_0_2_83
*359 FILLER_0_2_85
*360 FILLER_0_3_109
*361 FILLER_0_3_113
*362 FILLER_0_3_125
*363 FILLER_0_3_23
*364 FILLER_0_3_35
*365 FILLER_0_3_47
*366 FILLER_0_3_51
*367 FILLER_0_3_55
*368 FILLER_0_3_65
*369 FILLER_0_3_69
*370 FILLER_0_3_74
*371 FILLER_0_3_86
*372 FILLER_0_4_109
*373 FILLER_0_4_121
*374 FILLER_0_4_127
*375 FILLER_0_4_21
*376 FILLER_0_4_27
*377 FILLER_0_4_29
*378 FILLER_0_4_44
*379 FILLER_0_4_78
*380 FILLER_0_4_85
*381 FILLER_0_4_9
*382 FILLER_0_4_97
*383 FILLER_0_5_101
*384 FILLER_0_5_109
*385 FILLER_0_5_113
*386 FILLER_0_5_125
*387 FILLER_0_5_23
*388 FILLER_0_5_53
*389 FILLER_0_5_57
*390 FILLER_0_5_77
*391 FILLER_0_5_89
*392 FILLER_0_6_109
*393 FILLER_0_6_121
*394 FILLER_0_6_127
*395 FILLER_0_6_19
*396 FILLER_0_6_27
*397 FILLER_0_6_29
*398 FILLER_0_6_33
*399 FILLER_0_6_37
*400 FILLER_0_6_49
*401 FILLER_0_6_55
*402 FILLER_0_6_7
*403 FILLER_0_6_80
*404 FILLER_0_6_85
*405 FILLER_0_6_97
*406 FILLER_0_7_103
*407 FILLER_0_7_111
*408 FILLER_0_7_113
*409 FILLER_0_7_125
*410 FILLER_0_7_19
*411 FILLER_0_7_31
*412 FILLER_0_7_40
*413 FILLER_0_7_51
*414 FILLER_0_7_55
*415 FILLER_0_7_57
*416 FILLER_0_7_63
*417 FILLER_0_7_7
*418 FILLER_0_7_72
*419 FILLER_0_7_81
*420 FILLER_0_8_108
*421 FILLER_0_8_120
*422 FILLER_0_8_27
*423 FILLER_0_8_29
*424 FILLER_0_8_35
*425 FILLER_0_8_39
*426 FILLER_0_8_48
*427 FILLER_0_8_55
*428 FILLER_0_8_59
*429 FILLER_0_8_64
*430 FILLER_0_8_71
*431 FILLER_0_8_82
*432 FILLER_0_9_108
*433 FILLER_0_9_113
*434 FILLER_0_9_125
*435 FILLER_0_9_33
*436 FILLER_0_9_41
*437 FILLER_0_9_45
*438 FILLER_0_9_57
*439 FILLER_0_9_79
*440 FILLER_0_9_84
*441 FILLER_0_9_96
*442 PHY_EDGE_ROW_0_Left_22
*443 PHY_EDGE_ROW_0_Right_0
*444 PHY_EDGE_ROW_10_Left_32
*445 PHY_EDGE_ROW_10_Right_10
*446 PHY_EDGE_ROW_11_Left_33
*447 PHY_EDGE_ROW_11_Right_11
*448 PHY_EDGE_ROW_12_Left_34
*449 PHY_EDGE_ROW_12_Right_12
*450 PHY_EDGE_ROW_13_Left_35
*451 PHY_EDGE_ROW_13_Right_13
*452 PHY_EDGE_ROW_14_Left_36
*453 PHY_EDGE_ROW_14_Right_14
*454 PHY_EDGE_ROW_15_Left_37
*455 PHY_EDGE_ROW_15_Right_15
*456 PHY_EDGE_ROW_16_Left_38
*457 PHY_EDGE_ROW_16_Right_16
*458 PHY_EDGE_ROW_17_Left_39
*459 PHY_EDGE_ROW_17_Right_17
*460 PHY_EDGE_ROW_18_Left_40
*461 PHY_EDGE_ROW_18_Right_18
*462 PHY_EDGE_ROW_19_Left_41
*463 PHY_EDGE_ROW_19_Right_19
*464 PHY_EDGE_ROW_1_Left_23
*465 PHY_EDGE_ROW_1_Right_1
*466 PHY_EDGE_ROW_20_Left_42
*467 PHY_EDGE_ROW_20_Right_20
*468 PHY_EDGE_ROW_21_Left_43
*469 PHY_EDGE_ROW_21_Right_21
*470 PHY_EDGE_ROW_2_Left_24
*471 PHY_EDGE_ROW_2_Right_2
*472 PHY_EDGE_ROW_3_Left_25
*473 PHY_EDGE_ROW_3_Right_3
*474 PHY_EDGE_ROW_4_Left_26
*475 PHY_EDGE_ROW_4_Right_4
*476 PHY_EDGE_ROW_5_Left_27
*477 PHY_EDGE_ROW_5_Right_5
*478 PHY_EDGE_ROW_6_Left_28
*479 PHY_EDGE_ROW_6_Right_6
*480 PHY_EDGE_ROW_7_Left_29
*481 PHY_EDGE_ROW_7_Right_7
*482 PHY_EDGE_ROW_8_Left_30
*483 PHY_EDGE_ROW_8_Right_8
*484 PHY_EDGE_ROW_9_Left_31
*485 PHY_EDGE_ROW_9_Right_9
*486 TAP_TAPCELL_ROW_0_44
*487 TAP_TAPCELL_ROW_0_45
*488 TAP_TAPCELL_ROW_0_46
*489 TAP_TAPCELL_ROW_0_47
*490 TAP_TAPCELL_ROW_10_66
*491 TAP_TAPCELL_ROW_10_67
*492 TAP_TAPCELL_ROW_11_68
*493 TAP_TAPCELL_ROW_11_69
*494 TAP_TAPCELL_ROW_12_70
*495 TAP_TAPCELL_ROW_12_71
*496 TAP_TAPCELL_ROW_13_72
*497 TAP_TAPCELL_ROW_13_73
*498 TAP_TAPCELL_ROW_14_74
*499 TAP_TAPCELL_ROW_14_75
*500 TAP_TAPCELL_ROW_15_76
*501 TAP_TAPCELL_ROW_15_77
*502 TAP_TAPCELL_ROW_16_78
*503 TAP_TAPCELL_ROW_16_79
*504 TAP_TAPCELL_ROW_17_80
*505 TAP_TAPCELL_ROW_17_81
*506 TAP_TAPCELL_ROW_18_82
*507 TAP_TAPCELL_ROW_18_83
*508 TAP_TAPCELL_ROW_19_84
*509 TAP_TAPCELL_ROW_19_85
*510 TAP_TAPCELL_ROW_1_48
*511 TAP_TAPCELL_ROW_1_49
*512 TAP_TAPCELL_ROW_20_86
*513 TAP_TAPCELL_ROW_20_87
*514 TAP_TAPCELL_ROW_21_88
*515 TAP_TAPCELL_ROW_21_89
*516 TAP_TAPCELL_ROW_21_90
*517 TAP_TAPCELL_ROW_21_91
*518 TAP_TAPCELL_ROW_2_50
*519 TAP_TAPCELL_ROW_2_51
*520 TAP_TAPCELL_ROW_3_52
*521 TAP_TAPCELL_ROW_3_53
*522 TAP_TAPCELL_ROW_4_54
*523 TAP_TAPCELL_ROW_4_55
*524 TAP_TAPCELL_ROW_5_56
*525 TAP_TAPCELL_ROW_5_57
*526 TAP_TAPCELL_ROW_6_58
*527 TAP_TAPCELL_ROW_6_59
*528 TAP_TAPCELL_ROW_7_60
*529 TAP_TAPCELL_ROW_7_61
*530 TAP_TAPCELL_ROW_8_62
*531 TAP_TAPCELL_ROW_8_63
*532 TAP_TAPCELL_ROW_9_64
*533 TAP_TAPCELL_ROW_9_65
*534 _117_
*535 _118_
*536 _119_
*537 _120_
*538 _121_
*539 _122_
*540 _123_
*541 _124_
*542 _125_
*543 _126_
*544 _127_
*545 _128_
*546 _129_
*547 _130_
*548 _131_
*549 _132_
*550 _133_
*551 _134_
*552 _135_
*553 _136_
*554 _137_
*555 _138_
*556 _139_
*557 _140_
*558 _141_
*559 _142_
*560 _143_
*561 _144_
*562 _145_
*563 _146_
*564 _147_
*565 _148_
*566 _149_
*567 _150_
*568 _151_
*569 _152_
*570 _153_
*571 _154_
*572 _155_
*573 _156_
*574 _157_
*575 _158_
*576 _159_
*577 _160_
*578 _161_
*579 _162_
*580 _163_
*581 _164_
*582 _165_
*583 _166_
*584 _167_
*585 _168_
*586 _169_
*587 _170_
*588 _171_
*589 _172_
*590 _173_
*591 _174_
*592 _175_
*593 _176_
*594 _177_
*595 _178_
*596 _179_
*597 _180_
*598 _181_
*599 _182_
*600 _183_
*601 _184_
*602 _185_
*603 _186_
*604 _187_
*605 _188_
*606 _189_
*607 _190_
*608 _191_
*609 _192_
*610 _193_
*611 _194_
*612 _195_
*613 _196_
*614 _197_
*615 _198_
*616 _199_
*617 _200_
*618 _201_
*619 _202_
*620 _203_
*621 _204_
*622 _205_
*623 _206_
*624 _207_
*625 _208_
*626 _209_
*627 _210_
*628 _211_
*629 _212_
*630 _213_
*631 _214_
*632 _215_
*633 _216_
*634 _217_
*635 _218_
*636 _219_
*637 _220_
*638 _221_
*639 _222_
*640 _223_
*641 _224_
*642 _225_
*643 _226_
*644 _227_
*645 _228_
*646 _229_
*647 _230_
*648 _231_
*649 _232_
*650 _233_
*651 _234_
*652 _235_
*653 _236_
*654 _237_
*655 _238_
*656 _239_
*657 _240_
*658 _241_
*659 _242_
*660 _243_
*661 _244_
*662 _245_
*663 _246_
*664 _247_
*665 _248_
*666 _249_
*667 _250_
*668 _251_
*669 _252_
*670 _253_
*671 _254_
*672 _255_
*673 _256_
*674 _257_
*675 _258_
*676 _259_
*677 _260_
*678 _261_
*679 _262_
*680 _263_
*681 _264_
*682 _265_
*683 _266_
*684 clkbuf_0_clk
*685 clkbuf_1_0__f_clk
*686 clkbuf_1_1__f_clk
*687 clkload0
*688 input1
*689 input2
*690 input3
*691 input4
*692 input5
*693 input6
*694 input7
*695 output10
*696 output11
*697 output12
*698 output13
*699 output14
*700 output15
*701 output16
*702 output17
*703 output18
*704 output8
*705 output9
*706 pmu_fsm_21
*707 wire19
*708 wire20

*PORTS
clk I
clk_gate_en O
clk_stable I
dvfs_ctrl[0] O
dvfs_ctrl[1] O
error O
pwr_gate_en O
pwr_stable I
pwr_state[0] O
pwr_state[1] O
req_idle I
req_off I
req_sleep I
reset_ctrl O
reset_n I
retention_en O
retention_ready I
retention_restore O
retention_save O
seq_busy O
wake_up I

*D_NET *3 0.00741848
*CONN
*P clk I
*I *684:A I *D sky130_fd_sc_hd__clkbuf_16
*CAP
1 clk 0.00307255
2 *684:A 0.00307255
3 *684:A *629:A 1.17614e-05
4 *684:A *630:A 0.000169319
5 *684:A *630:B 0.000134123
6 *684:A *644:A 0.000115464
7 *684:A *644:B 0.000112929
8 *684:A *672:RESET_B 7.57139e-05
9 *684:A *686:A 0
10 *684:A *703:A 0
11 *684:A *17:80 0.000164649
12 *684:A *59:58 9.38158e-05
13 *684:A *60:10 3.92907e-05
14 *684:A *92:18 0.000304867
15 *684:A *128:8 5.14424e-05
*RES
1 clk *684:A 28.2873 
*END

*D_NET *4 0.00384668
*CONN
*P clk_gate_en O
*I *704:X O *D sky130_fd_sc_hd__buf_4
*CAP
1 clk_gate_en 0.00159394
2 *704:X 0.00159394
3 clk_gate_en pwr_gate_en 0.000328404
4 clk_gate_en *665:D 0.000300109
5 clk_gate_en *665:RESET_B 0
6 clk_gate_en *679:RESET_B 0
7 clk_gate_en *17:160 0
8 clk_gate_en *142:45 3.0283e-05
9 clk_gate_en *142:65 0
10 clk_gate_en *142:87 0
*RES
1 *704:X clk_gate_en 25.114 
*END

*D_NET *5 0.000465811
*CONN
*P clk_stable I
*I *688:A I *D sky130_fd_sc_hd__clkbuf_1
*CAP
1 clk_stable 0.000219447
2 *688:A 0.000219447
3 *688:A *575:A 2.69174e-05
*RES
1 clk_stable *688:A 5.5535 
*END

*D_NET *6 0.000531065
*CONN
*P dvfs_ctrl[0] O
*I *706:HI O *D sky130_fd_sc_hd__conb_1
*CAP
1 dvfs_ctrl[0] 0.000265532
2 *706:HI 0.000265532
3 dvfs_ctrl[0] dvfs_ctrl[1] 0
4 dvfs_ctrl[0] reset_ctrl 0
*RES
1 *706:HI dvfs_ctrl[0] 6.8343 
*END

*D_NET *7 0.000632021
*CONN
*P dvfs_ctrl[1] O
*I *705:X O *D sky130_fd_sc_hd__clkbuf_2
*CAP
1 dvfs_ctrl[1] 0.000316011
2 *705:X 0.000316011
3 dvfs_ctrl[1] pwr_state[0] 0
4 dvfs_ctrl[1] *705:A 0
5 dvfs_ctrl[0] dvfs_ctrl[1] 0
*RES
1 *705:X dvfs_ctrl[1] 7.5993 
*END

*D_NET *8 0.00117272
*CONN
*P error O
*I *695:X O *D sky130_fd_sc_hd__clkbuf_2
*CAP
1 error 0.000532716
2 *695:X 0.000532716
3 error seq_busy 0.000107284
*RES
1 *695:X error 11.1035 
*END

*D_NET *9 0.00204063
*CONN
*P pwr_gate_en O
*I *696:X O *D sky130_fd_sc_hd__buf_4
*CAP
1 pwr_gate_en 0.000811978
2 *696:X 0.000811978
3 pwr_gate_en retention_en 0
4 pwr_gate_en *696:A 8.8266e-05
5 clk_gate_en pwr_gate_en 0.000328404
*RES
1 *696:X pwr_gate_en 11.4658 
*END

*D_NET *10 0.000462576
*CONN
*P pwr_stable I
*I *689:A I *D sky130_fd_sc_hd__clkbuf_1
*CAP
1 pwr_stable 0.000231288
2 *689:A 0.000231288
*RES
1 pwr_stable *689:A 5.5535 
*END

*D_NET *11 0.00055299
*CONN
*P pwr_state[0] O
*I *697:X O *D sky130_fd_sc_hd__clkbuf_2
*CAP
1 pwr_state[0] 0.000276495
2 *697:X 0.000276495
3 pwr_state[0] pwr_state[1] 0
4 pwr_state[0] *697:A 0
5 dvfs_ctrl[1] pwr_state[0] 0
*RES
1 *697:X pwr_state[0] 6.8637 
*END

*D_NET *12 0.000538393
*CONN
*P pwr_state[1] O
*I *698:X O *D sky130_fd_sc_hd__clkbuf_2
*CAP
1 pwr_state[1] 0.000269196
2 *698:X 0.000269196
3 pwr_state[1] seq_busy 0
4 pwr_state[0] pwr_state[1] 0
*RES
1 *698:X pwr_state[1] 6.8343 
*END

*D_NET *13 0.00100015
*CONN
*P req_idle I
*I *690:A I *D sky130_fd_sc_hd__clkbuf_1
*CAP
1 req_idle 0.000473015
2 *690:A 0.000473015
3 *690:A *679:CLK 5.83121e-06
4 *690:A *679:D 4.82863e-05
*RES
1 req_idle *690:A 11.7 
*END

*D_NET *14 0.000786261
*CONN
*P req_off I
*I *691:A I *D sky130_fd_sc_hd__clkbuf_1
*CAP
1 req_off 0.000393131
2 *691:A 0.000393131
3 *691:A *676:RESET_B 0
*RES
1 req_off *691:A 10.35 
*END

*D_NET *15 0.00111503
*CONN
*P req_sleep I
*I *692:A I *D sky130_fd_sc_hd__clkbuf_1
*CAP
1 req_sleep 0.000530512
2 *692:A 0.000530512
3 *692:A *678:D 5.4003e-05
*RES
1 req_sleep *692:A 15.835 
*END

*D_NET *16 0.000787394
*CONN
*P reset_ctrl O
*I *699:X O *D sky130_fd_sc_hd__buf_2
*CAP
1 reset_ctrl 0.000393697
2 *699:X 0.000393697
3 reset_ctrl retention_restore 0
4 reset_ctrl *699:A 0
5 dvfs_ctrl[0] reset_ctrl 0
*RES
1 *699:X reset_ctrl 8.0343 
*END

*D_NET *17 0.03161
*CONN
*P reset_n I
*I *659:RESET_B I *D sky130_fd_sc_hd__dfrtp_1
*I *670:RESET_B I *D sky130_fd_sc_hd__dfrtp_1
*I *669:RESET_B I *D sky130_fd_sc_hd__dfrtp_1
*I *668:RESET_B I *D sky130_fd_sc_hd__dfrtp_1
*I *667:RESET_B I *D sky130_fd_sc_hd__dfrtp_1
*I *673:RESET_B I *D sky130_fd_sc_hd__dfrtp_4
*I *675:RESET_B I *D sky130_fd_sc_hd__dfrtp_4
*I *674:RESET_B I *D sky130_fd_sc_hd__dfrtp_1
*I *680:RESET_B I *D sky130_fd_sc_hd__dfrtp_1
*I *677:RESET_B I *D sky130_fd_sc_hd__dfrtp_1
*I *676:RESET_B I *D sky130_fd_sc_hd__dfrtp_1
*I *681:RESET_B I *D sky130_fd_sc_hd__dfrtp_1
*I *682:RESET_B I *D sky130_fd_sc_hd__dfrtp_1
*I *678:RESET_B I *D sky130_fd_sc_hd__dfrtp_1
*I *683:RESET_B I *D sky130_fd_sc_hd__dfrtp_1
*I *679:RESET_B I *D sky130_fd_sc_hd__dfrtp_1
*I *666:RESET_B I *D sky130_fd_sc_hd__dfrtp_1
*I *665:RESET_B I *D sky130_fd_sc_hd__dfrtp_1
*I *656:SET_B I *D sky130_fd_sc_hd__dfstp_1
*I *660:RESET_B I *D sky130_fd_sc_hd__dfrtp_1
*I *672:RESET_B I *D sky130_fd_sc_hd__dfrtp_1
*I *657:RESET_B I *D sky130_fd_sc_hd__dfrtp_1
*I *671:RESET_B I *D sky130_fd_sc_hd__dfrtp_1
*I *658:RESET_B I *D sky130_fd_sc_hd__dfrtp_1
*I *661:RESET_B I *D sky130_fd_sc_hd__dfrtp_1
*I *662:RESET_B I *D sky130_fd_sc_hd__dfrtp_1
*I *663:RESET_B I *D sky130_fd_sc_hd__dfrtp_1
*I *664:RESET_B I *D sky130_fd_sc_hd__dfrtp_1
*CAP
1 reset_n 0.000575949
2 *659:RESET_B 5.39672e-06
3 *670:RESET_B 0
4 *669:RESET_B 0
5 *668:RESET_B 0
6 *667:RESET_B 0
7 *673:RESET_B 0.000482294
8 *675:RESET_B 9.35849e-05
9 *674:RESET_B 0
10 *680:RESET_B 3.24037e-05
11 *677:RESET_B 0
12 *676:RESET_B 0.000181403
13 *681:RESET_B 0.000368393
14 *682:RESET_B 2.66297e-05
15 *678:RESET_B 9.5018e-06
16 *683:RESET_B 0.000188662
17 *679:RESET_B 0.000213995
18 *666:RESET_B 0.000354365
19 *665:RESET_B 0.000773873
20 *656:SET_B 0.000947654
21 *660:RESET_B 0.00157477
22 *672:RESET_B 0.000374343
23 *657:RESET_B 0.000334229
24 *671:RESET_B 0.000104812
25 *658:RESET_B 0.000682536
26 *661:RESET_B 5.98798e-06
27 *662:RESET_B 0.000565214
28 *663:RESET_B 8.12788e-05
29 *664:RESET_B 0.000190845
30 *17:287 0.000568728
31 *17:277 0.000626342
32 *17:259 0.000295162
33 *17:257 0.000282417
34 *17:237 0.00068763
35 *17:223 0.000670858
36 *17:203 0.000773762
37 *17:199 0.00100943
38 *17:173 0.00100413
39 *17:160 0.000425032
40 *17:158 0.000575707
41 *17:156 0.000490822
42 *17:154 0.000631036
43 *17:130 0.00162065
44 *17:80 0.00066677
45 *17:74 0.000757429
46 *17:49 0.00105317
47 *17:37 0.000918768
48 *17:11 0.000363651
49 *17:9 0.00109578
50 *656:SET_B *618:A 9.30787e-05
51 *656:SET_B *620:A 9.14049e-05
52 *656:SET_B *656:D 7.31567e-05
53 *656:SET_B *657:CLK 0.000113247
54 *656:SET_B *670:CLK 2.49909e-05
55 *656:SET_B *143:25 0.000150188
56 *656:SET_B *143:33 4.66826e-05
57 *656:SET_B *159:27 0.000306253
58 *657:RESET_B *657:D 0
59 *657:RESET_B *159:27 0.000123971
60 *657:RESET_B *159:38 0.000209
61 *658:RESET_B *644:B 6.19551e-05
62 *658:RESET_B *661:D 8.60799e-05
63 *658:RESET_B *695:A 0
64 *658:RESET_B *143:116 0.00019044
65 *659:RESET_B *143:25 2.53494e-05
66 *660:RESET_B *650:B 5.4565e-05
67 *660:RESET_B *707:A 0.000307634
68 *660:RESET_B *73:12 5.14703e-05
69 *660:RESET_B *85:12 5.3468e-05
70 *660:RESET_B *86:10 6.30127e-05
71 *660:RESET_B *143:114 0
72 *660:RESET_B *178:12 6.28143e-05
73 *661:RESET_B *143:116 2.53494e-05
74 *662:RESET_B *143:114 0.00015737
75 *662:RESET_B *178:12 4.80285e-05
76 *663:RESET_B *179:6 0.000118246
77 *664:RESET_B *180:6 4.32278e-05
78 *665:RESET_B *700:A 0
79 *666:RESET_B *666:D 2.86975e-05
80 *666:RESET_B *142:37 0.000231909
81 *666:RESET_B *142:45 0
82 *672:RESET_B *644:B 0
83 *672:RESET_B *658:CLK 6.07347e-05
84 *672:RESET_B *703:A 0
85 *672:RESET_B *143:118 2.96334e-05
86 *673:RESET_B *561:A 0
87 *673:RESET_B *562:B 0
88 *673:RESET_B *605:A1 0.000198844
89 *673:RESET_B *105:14 0
90 *675:RESET_B *675:CLK 4.56649e-05
91 *675:RESET_B *675:D 3.06743e-05
92 *675:RESET_B *146:8 7.95914e-05
93 *676:RESET_B *680:D 4.2138e-05
94 *678:RESET_B *666:D 1.53577e-05
95 *678:RESET_B *142:33 4.24575e-05
96 *679:RESET_B *679:CLK 5.82889e-06
97 *679:RESET_B *683:CLK 0.000112622
98 *679:RESET_B *683:D 3.00381e-05
99 *679:RESET_B *142:45 5.23041e-05
100 *681:RESET_B *564:A 5.53774e-05
101 *681:RESET_B *171:12 0.000255172
102 *682:RESET_B *109:12 9.70252e-06
103 *682:RESET_B *171:12 3.64998e-06
104 *683:RESET_B *561:A 6.71254e-05
105 *17:37 *650:B 0.0004262
106 *17:37 *652:A 4.99619e-05
107 *17:37 *652:B 0.000301891
108 *17:37 *653:A 0.000146484
109 *17:37 *143:114 0.000391354
110 *17:49 *143:114 0.000238768
111 *17:49 *143:116 0.00021052
112 *17:49 *177:12 0.000276548
113 *17:74 *644:A 4.76437e-05
114 *17:80 *612:A 0.000138918
115 *17:80 *631:A 0.000121039
116 *17:80 *671:CLK 4.90291e-05
117 *17:80 *671:D 5.51869e-05
118 *17:130 *536:A 2.45351e-05
119 *17:130 *536:B 0.000171808
120 *17:130 *580:B 8.57321e-05
121 *17:130 *707:A 0.000131874
122 *17:130 *59:14 0
123 *17:130 *124:10 8.53113e-06
124 *17:130 *143:16 0.000253946
125 *17:130 *143:25 0.000195453
126 *17:130 *176:16 1.0183e-05
127 *17:154 *612:A 0
128 *17:154 *656:D 0.000300109
129 *17:154 *668:D 0
130 *17:154 *669:D 0
131 *17:154 *670:CLK 0
132 *17:156 *668:D 0
133 *17:156 *669:D 0
134 *17:160 retention_save 0
135 *17:160 *142:87 0
136 *17:173 *665:CLK 3.45588e-05
137 *17:203 *561:A 0
138 *17:223 *682:D 8.41015e-06
139 *17:237 *666:D 5.03202e-05
140 *17:237 *142:31 0.000646931
141 *17:237 *142:33 0.000122337
142 *17:259 *680:D 7.45794e-05
143 *17:277 *680:D 6.73751e-05
144 *17:287 *185:12 6.55328e-05
145 clk_gate_en *665:RESET_B 0
146 clk_gate_en *679:RESET_B 0
147 clk_gate_en *17:160 0
148 *684:A *672:RESET_B 7.57139e-05
149 *684:A *17:80 0.000164649
150 *691:A *676:RESET_B 0
*RES
1 reset_n *17:9 9.915 
2 *17:9 *17:11 1.38 
3 *17:11 *664:RESET_B 5.3075 
4 *17:11 *663:RESET_B 3.4325 
5 *17:9 *17:37 12.92 
6 *17:37 *662:RESET_B 1.4325 
7 *662:RESET_B *17:49 9.4125 
8 *17:49 *661:RESET_B 0.3975 
9 *17:49 *658:RESET_B 11.365 
10 *658:RESET_B *17:74 4.4825 
11 *17:74 *17:80 7.85 
12 *17:80 *671:RESET_B 1.4325 
13 *17:80 *657:RESET_B 10.99 
14 *17:74 *672:RESET_B 7.6025 
15 *17:37 *660:RESET_B 14.05 
16 *660:RESET_B *17:130 20.1925 
17 *17:130 *656:SET_B 13.3375 
18 *656:SET_B *17:154 10.82 
19 *17:154 *17:156 2.91 
20 *17:156 *17:158 5.46 
21 *17:158 *17:160 4.185 
22 *17:160 *665:RESET_B 4.91 
23 *665:RESET_B *17:173 7.0725 
24 *17:173 *666:RESET_B 7.2475 
25 *666:RESET_B *679:RESET_B 8.4325 
26 *17:173 *17:199 4.865 
27 *17:199 *17:203 3.0825 
28 *17:203 *683:RESET_B 5.18 
29 *17:203 *17:223 3.67837 
30 *17:223 *678:RESET_B 0.3975 
31 *17:223 *17:237 12.385 
32 *17:237 *682:RESET_B 0.3975 
33 *17:237 *681:RESET_B 6.3825 
34 *681:RESET_B *17:257 2.7575 
35 *17:257 *17:259 2.145 
36 *17:259 *676:RESET_B 5.21 
37 *17:259 *677:RESET_B 2 
38 *17:257 *17:277 2.4 
39 *17:277 *680:RESET_B 2.3975 
40 *17:277 *17:287 8.265 
41 *17:287 *674:RESET_B 2 
42 *17:287 *675:RESET_B 4.1225 
43 *17:199 *673:RESET_B 10.5425 
44 *17:160 *667:RESET_B 2 
45 *17:158 *668:RESET_B 2 
46 *17:156 *669:RESET_B 2 
47 *17:154 *670:RESET_B 2 
48 *17:130 *659:RESET_B 0.3975 
*END

*D_NET *18 0.000760582
*CONN
*P retention_en O
*I *700:X O *D sky130_fd_sc_hd__buf_4
*CAP
1 retention_en 0.000356148
2 *700:X 0.000356148
3 retention_en retention_save 0
4 retention_en *700:A 4.82863e-05
5 pwr_gate_en retention_en 0
*RES
1 *700:X retention_en 8.1243 
*END

*D_NET *19 0.000472402
*CONN
*P retention_ready I
*I *693:A I *D sky130_fd_sc_hd__buf_1
*CAP
1 retention_ready 0.000230345
2 *693:A 0.000230345
3 *693:A *581:A 1.17114e-05
*RES
1 retention_ready *693:A 5.5535 
*END

*D_NET *20 0.000748647
*CONN
*P retention_restore O
*I *701:X O *D sky130_fd_sc_hd__buf_2
*CAP
1 retention_restore 0.000374324
2 *701:X 0.000374324
3 retention_restore retention_save 0
4 reset_ctrl retention_restore 0
*RES
1 *701:X retention_restore 7.7793 
*END

*D_NET *21 0.000853774
*CONN
*P retention_save O
*I *702:X O *D sky130_fd_sc_hd__buf_2
*CAP
1 retention_save 0.000407419
2 *702:X 0.000407419
3 retention_save *702:A 3.89366e-05
4 retention_en retention_save 0
5 retention_restore retention_save 0
6 *17:160 retention_save 0
*RES
1 *702:X retention_save 8.0233 
*END

*D_NET *22 0.00101168
*CONN
*P seq_busy O
*I *703:X O *D sky130_fd_sc_hd__clkbuf_2
*CAP
1 seq_busy 0.000388914
2 *703:X 0.000388914
3 seq_busy *695:A 0.00012657
4 error seq_busy 0.000107284
5 pwr_state[1] seq_busy 0
*RES
1 *703:X seq_busy 7.76023 
*END

*D_NET *23 0.000893397
*CONN
*P wake_up I
*I *694:A I *D sky130_fd_sc_hd__clkbuf_1
*CAP
1 wake_up 0.000432937
2 *694:A 0.000432937
3 *694:A *676:D 2.75229e-05
*RES
1 wake_up *694:A 11.04 
*END

*D_NET *24 0.00137748
*CONN
*I *665:D I *D sky130_fd_sc_hd__dfrtp_1
*I *605:X O *D sky130_fd_sc_hd__o21a_1
*CAP
1 *665:D 0.000537917
2 *605:X 0.000537917
3 *665:D *88:12 1.54061e-06
4 *665:D *142:65 0
5 *665:D *142:76 0
6 *665:D *142:87 0
7 clk_gate_en *665:D 0.000300109
*RES
1 *605:X *665:D 14.865 
*END

*D_NET *25 0.000791287
*CONN
*I *656:D I *D sky130_fd_sc_hd__dfstp_1
*I *607:Y O *D sky130_fd_sc_hd__inv_2
*CAP
1 *656:D 0.000209011
2 *607:Y 0.000209011
3 *656:D *668:D 0
4 *656:D *670:CLK 0
5 *656:SET_B *656:D 7.31567e-05
6 *17:154 *656:D 0.000300109
*RES
1 *607:Y *656:D 12.105 
*END

*D_NET *26 0.00409326
*CONN
*I *601:A I *D sky130_fd_sc_hd__nand3_1
*I *666:D I *D sky130_fd_sc_hd__dfrtp_1
*I *600:Y O *D sky130_fd_sc_hd__nor2_1
*CAP
1 *601:A 0
2 *666:D 0.000944723
3 *600:Y 0.000555237
4 *26:10 0.00149996
5 *666:D *566:B 5.16418e-05
6 *666:D *666:CLK 4.89295e-05
7 *666:D *678:D 0.000243256
8 *666:D *682:CLK 0.000116165
9 *666:D *682:D 3.68705e-05
10 *666:D *109:12 0
11 *666:D *142:33 1.55183e-05
12 *666:D *142:37 2.58336e-05
13 *666:D *142:120 2.20014e-05
14 *26:10 *565:B 0
15 *26:10 *566:A 3.90287e-05
16 *26:10 *566:B 0.000152127
17 *26:10 *571:A 0.000110483
18 *26:10 *602:C1 0.000123289
19 *26:10 *90:30 1.38207e-05
20 *26:10 *90:38 0
21 *26:10 *105:14 0
22 *26:10 *109:12 0
23 *666:RESET_B *666:D 2.86975e-05
24 *678:RESET_B *666:D 1.53577e-05
25 *17:237 *666:D 5.03202e-05
*RES
1 *600:Y *26:10 12.93 
2 *26:10 *666:D 18 
3 *26:10 *601:A 3.6 
*END

*D_NET *27 0.00254455
*CONN
*I *668:D I *D sky130_fd_sc_hd__dfrtp_1
*I *615:X O *D sky130_fd_sc_hd__o211a_1
*CAP
1 *668:D 0.00105064
2 *615:X 0.00105064
3 *668:D *614:A1 0
4 *668:D *669:D 8.68724e-05
5 *668:D *670:CLK 0.000259282
6 *668:D *670:D 9.71067e-05
7 *668:D *46:10 0
8 *656:D *668:D 0
9 *17:154 *668:D 0
10 *17:156 *668:D 0
*RES
1 *615:X *668:D 24.225 
*END

*D_NET *28 0.000517998
*CONN
*I *657:D I *D sky130_fd_sc_hd__dfrtp_1
*I *627:Y O *D sky130_fd_sc_hd__nor2_1
*CAP
1 *657:D 0.00025317
2 *627:Y 0.00025317
3 *657:D *627:B 1.16578e-05
4 *657:D *705:A 0
5 *657:RESET_B *657:D 0
*RES
1 *627:Y *657:D 10.575 
*END

*D_NET *29 0.000287939
*CONN
*I *658:D I *D sky130_fd_sc_hd__dfrtp_1
*I *631:Y O *D sky130_fd_sc_hd__nor2_1
*CAP
1 *658:D 0.000110353
2 *631:Y 0.000110353
3 *658:D *631:B 6.72833e-06
4 *658:D *703:A 5.62235e-05
5 *658:D *159:38 4.28112e-06
*RES
1 *631:Y *658:D 9.03 
*END

*D_NET *30 0.000814279
*CONN
*I *659:D I *D sky130_fd_sc_hd__dfrtp_1
*I *636:Y O *D sky130_fd_sc_hd__nor2_1
*CAP
1 *659:D 0.000242952
2 *636:Y 0.000242952
3 *659:D *671:D 7.23602e-05
4 *659:D *143:25 0.000183656
5 *659:D *173:43 7.23602e-05
*RES
1 *636:Y *659:D 10.9838 
*END

*D_NET *31 0.00188732
*CONN
*I *660:D I *D sky130_fd_sc_hd__dfrtp_1
*I *640:Y O *D sky130_fd_sc_hd__nor2_1
*CAP
1 *660:D 0.000585689
2 *640:Y 0.000585689
3 *660:D *655:A 0.000235378
4 *660:D *707:A 0.000157401
5 *660:D *59:106 5.52527e-05
6 *660:D *86:10 0
7 *660:D *143:80 9.50342e-06
8 *660:D *143:95 0.000258408
*RES
1 *640:Y *660:D 16.335 
*END

*D_NET *32 0.000452829
*CONN
*I *661:D I *D sky130_fd_sc_hd__dfrtp_1
*I *644:Y O *D sky130_fd_sc_hd__nor2_1
*CAP
1 *661:D 7.31371e-05
2 *644:Y 7.31371e-05
3 *661:D *644:B 8.23457e-05
4 *661:D *143:116 6.84173e-05
5 *661:D *143:118 6.97118e-05
6 *658:RESET_B *661:D 8.60799e-05
*RES
1 *644:Y *661:D 5.375 
*END

*D_NET *33 0.00042058
*CONN
*I *662:D I *D sky130_fd_sc_hd__dfrtp_1
*I *649:Y O *D sky130_fd_sc_hd__nor2_1
*CAP
1 *662:D 0.000129131
2 *649:Y 0.000129131
3 *662:D *649:B 0.000162318
*RES
1 *649:Y *662:D 9.54 
*END

*D_NET *34 0.000307486
*CONN
*I *663:D I *D sky130_fd_sc_hd__dfrtp_1
*I *653:Y O *D sky130_fd_sc_hd__nor2_1
*CAP
1 *663:D 9.90096e-05
2 *653:Y 9.90096e-05
3 *663:D *651:B 5.83121e-06
4 *663:D *179:10 0.000103635
*RES
1 *653:Y *663:D 5.03 
*END

*D_NET *35 0.000775767
*CONN
*I *664:D I *D sky130_fd_sc_hd__dfrtp_1
*I *655:Y O *D sky130_fd_sc_hd__nor2_1
*CAP
1 *664:D 0.000271876
2 *655:Y 0.000271876
3 *664:D *538:A 2.69153e-05
4 *664:D *538:B 5.47309e-05
5 *664:D *85:12 3.04958e-05
6 *664:D *143:101 0.000119873
*RES
1 *655:Y *664:D 7.91 
*END

*D_NET *36 0.00133903
*CONN
*I *594:A I *D sky130_fd_sc_hd__nor2_1
*I *593:Y O *D sky130_fd_sc_hd__nand2_1
*CAP
1 *594:A 0.000394521
2 *593:Y 0.000394521
3 *594:A *544:B 4.82863e-05
4 *594:A *582:A 4.43682e-05
5 *594:A *582:B 5.84775e-05
6 *594:A *582:C 5.96859e-05
7 *594:A *583:A 2.6502e-05
8 *594:A *583:B 3.62082e-05
9 *594:A *588:B 8.65961e-05
10 *594:A *595:A 3.95724e-05
11 *594:A *38:10 1.61831e-05
12 *594:A *92:14 1.79483e-05
13 *594:A *127:10 0.000116158
14 *594:A *129:12 0
*RES
1 *593:Y *594:A 13.875 
*END

*D_NET *37 0.000197667
*CONN
*I *595:A I *D sky130_fd_sc_hd__nor2_1
*I *594:Y O *D sky130_fd_sc_hd__nor2_1
*CAP
1 *595:A 4.68128e-05
2 *594:Y 4.68128e-05
3 *595:A *588:B 1.61831e-05
4 *595:A *38:10 4.82863e-05
5 *594:A *595:A 3.95724e-05
*RES
1 *594:Y *595:A 4.355 
*END

*D_NET *38 0.00113793
*CONN
*I *621:A I *D sky130_fd_sc_hd__nand3_1
*I *604:A I *D sky130_fd_sc_hd__nand2_1
*I *595:Y O *D sky130_fd_sc_hd__nor2_1
*CAP
1 *621:A 0
2 *604:A 0.000153508
3 *595:Y 0.000170696
4 *38:10 0.000324204
5 *604:A *591:A 4.28112e-06
6 *604:A *675:D 2.69153e-05
7 *604:A *145:6 2.01737e-05
8 *38:10 *589:B1 0.000163193
9 *38:10 *591:A 9.36361e-05
10 *38:10 *626:A 0.000116853
11 *594:A *38:10 1.61831e-05
12 *595:A *38:10 4.82863e-05
*RES
1 *595:Y *38:10 8.07 
2 *38:10 *604:A 5.94 
3 *38:10 *621:A 3.6 
*END

*D_NET *39 0.00162653
*CONN
*I *603:A2 I *D sky130_fd_sc_hd__a21oi_1
*I *611:A I *D sky130_fd_sc_hd__or3b_1
*I *596:Y O *D sky130_fd_sc_hd__inv_2
*CAP
1 *603:A2 6.74597e-05
2 *611:A 0.000547428
3 *596:Y 0
4 *39:4 0.000614888
5 *603:A2 *603:B1 1.37328e-05
6 *603:A2 *610:B 1.68183e-05
7 *603:A2 *115:8 3.70488e-05
8 *611:A *570:A 2.86975e-05
9 *611:A *610:B 0.00011036
10 *611:A *48:8 8.63511e-05
11 *611:A *115:8 0.000103747
*RES
1 *596:Y *39:4 1.6 
2 *39:4 *611:A 10.345 
3 *39:4 *603:A2 3.115 
*END

*D_NET *40 0.0031623
*CONN
*I *602:A2 I *D sky130_fd_sc_hd__o211ai_2
*I *606:B I *D sky130_fd_sc_hd__nor2_1
*I *597:Y O *D sky130_fd_sc_hd__nand2_1
*CAP
1 *602:A2 0.000389836
2 *606:B 0.000622694
3 *597:Y 0
4 *40:4 0.00101253
5 *602:A2 *44:10 4.77769e-05
6 *602:A2 *90:30 0.000156629
7 *602:A2 *144:93 6.99872e-05
8 *606:B *574:A 1.42598e-05
9 *606:B *606:A 5.12969e-06
10 *606:B *608:A2 0.000173049
11 *606:B *608:B1 4.77719e-05
12 *606:B *671:D 8.35106e-05
13 *606:B *46:10 1.9872e-05
14 *606:B *105:14 8.33066e-06
15 *606:B *105:36 0.000179704
16 *606:B *144:29 0.000194898
17 *606:B *144:50 0.000136319
*RES
1 *597:Y *40:4 1.6 
2 *40:4 *606:B 19.905 
3 *40:4 *602:A2 6.805 
*END

*D_NET *41 0.000514959
*CONN
*I *599:A I *D sky130_fd_sc_hd__nand3_1
*I *598:Y O *D sky130_fd_sc_hd__nand2_1
*CAP
1 *599:A 0.000136435
2 *598:Y 0.000136435
3 *599:A *598:A 7.60965e-05
4 *599:A *103:17 0.000115254
5 *599:A *146:78 5.07376e-05
*RES
1 *598:Y *599:A 9.72 
*END

*D_NET *42 0.00144302
*CONN
*I *602:B1 I *D sky130_fd_sc_hd__o211ai_2
*I *599:Y O *D sky130_fd_sc_hd__nand3_1
*CAP
1 *602:B1 0.000442523
2 *599:Y 0.000442523
3 *602:B1 *563:B 2.98587e-05
4 *602:B1 *571:A 7.03276e-05
5 *602:B1 *590:A2 4.77769e-05
6 *602:B1 *590:A3 3.54721e-05
7 *602:B1 *90:20 0.000267554
8 *602:B1 *90:30 2.3228e-05
9 *602:B1 *103:17 4.28112e-06
10 *602:B1 *112:6 3.64998e-06
11 *602:B1 *144:93 7.58267e-05
*RES
1 *599:Y *602:B1 17.635 
*END

*D_NET *43 0.000558501
*CONN
*I *602:C1 I *D sky130_fd_sc_hd__o211ai_2
*I *601:Y O *D sky130_fd_sc_hd__nand3_1
*CAP
1 *602:C1 0.000124438
2 *601:Y 0.000124438
3 *602:C1 *563:B 5.66602e-05
4 *602:C1 *565:B 4.11112e-05
5 *602:C1 *566:A 3.79555e-05
6 *602:C1 *568:A 4.14843e-05
7 *602:C1 *90:30 9.12494e-06
8 *26:10 *602:C1 0.000123289
*RES
1 *601:Y *602:C1 10.365 
*END

*D_NET *44 0.00263685
*CONN
*I *603:B1 I *D sky130_fd_sc_hd__a21oi_1
*I *622:A I *D sky130_fd_sc_hd__inv_2
*I *602:Y O *D sky130_fd_sc_hd__o211ai_2
*CAP
1 *603:B1 0.000145174
2 *622:A 9.55355e-05
3 *602:Y 0.000238371
4 *44:10 0.000479081
5 *603:B1 *572:B 2.05722e-05
6 *603:B1 *610:B 0.000136276
7 *603:B1 *626:C 0.00013521
8 *603:B1 *685:A 0.00013744
9 *603:B1 *45:10 0.000235568
10 *603:B1 *115:16 0
11 *622:A *589:A2 2.65814e-06
12 *622:A *589:B1 0.000112408
13 *622:A *591:B 1.32102e-05
14 *622:A *146:14 0.000268176
15 *44:10 *571:A 6.73186e-05
16 *44:10 *572:B 2.79424e-05
17 *44:10 *685:A 0.000322385
18 *44:10 *144:93 2.69217e-05
19 *44:10 *146:16 0.000111087
20 *602:A2 *44:10 4.77769e-05
21 *603:A2 *603:B1 1.37328e-05
*RES
1 *602:Y *44:10 9.51 
2 *44:10 *622:A 6.48 
3 *44:10 *603:B1 8.535 
*END

*D_NET *45 0.00247109
*CONN
*I *621:C I *D sky130_fd_sc_hd__nand3_1
*I *604:B I *D sky130_fd_sc_hd__nand2_1
*I *603:Y O *D sky130_fd_sc_hd__a21oi_1
*CAP
1 *621:C 9.88613e-06
2 *604:B 0.000105763
3 *603:Y 0.000493847
4 *45:10 0.000609496
5 *604:B *587:B 9.05592e-05
6 *604:B *145:23 4.89395e-05
7 *621:C *591:A 4.77807e-05
8 *621:C *146:10 4.77807e-05
9 *45:10 *587:B 0.000172726
10 *45:10 *591:A 3.47421e-05
11 *45:10 *592:A 9.37731e-05
12 *45:10 *610:B 6.89033e-05
13 *45:10 *626:A 0.000100042
14 *45:10 *89:12 0.000311288
15 *603:B1 *45:10 0.000235568
*RES
1 *603:Y *45:10 13.44 
2 *45:10 *604:B 5.685 
3 *45:10 *621:C 4.05 
*END

*D_NET *46 0.00250721
*CONN
*I *607:A I *D sky130_fd_sc_hd__inv_2
*I *610:A I *D sky130_fd_sc_hd__nor2_1
*I *606:Y O *D sky130_fd_sc_hd__nor2_1
*CAP
1 *607:A 0.000493578
2 *610:A 0
3 *606:Y 0.000256056
4 *46:10 0.000749634
5 *607:A *546:A 0.000163199
6 *607:A *613:A2 0
7 *607:A *613:B1 7.34364e-05
8 *607:A *708:A 0
9 *607:A *88:48 0.000166346
10 *607:A *100:10 9.4087e-05
11 *46:10 *614:B1 0.000180689
12 *46:10 *88:12 0.000103568
13 *46:10 *88:48 0.000206745
14 *606:B *46:10 1.9872e-05
15 *668:D *46:10 0
*RES
1 *606:Y *46:10 8.76 
2 *46:10 *610:A 3.6 
3 *46:10 *607:A 12.93 
*END

*D_NET *47 0.00184934
*CONN
*I *613:B1 I *D sky130_fd_sc_hd__a21o_1
*I *611:B I *D sky130_fd_sc_hd__or3b_1
*I *609:Y O *D sky130_fd_sc_hd__nor2_1
*CAP
1 *613:B1 0.000198315
2 *611:B 0
3 *609:Y 0.000274641
4 *47:10 0.000472956
5 *613:B1 *554:A 8.88715e-05
6 *613:B1 *554:B 0.00011671
7 *613:B1 *614:A2 9.76522e-05
8 *613:B1 *614:B1 7.63883e-05
9 *613:B1 *100:10 1.52184e-05
10 *613:B1 *100:25 0.000120655
11 *47:10 *570:B 0.000122801
12 *47:10 *614:A1 9.29751e-06
13 *47:10 *614:A2 3.86607e-05
14 *47:10 *614:B1 0.000143733
15 *607:A *613:B1 7.34364e-05
*RES
1 *609:Y *47:10 8.28 
2 *47:10 *611:B 3.6 
3 *47:10 *613:B1 8.88 
*END

*D_NET *48 0.000888721
*CONN
*I *611:C_N I *D sky130_fd_sc_hd__or3b_1
*I *614:B1 I *D sky130_fd_sc_hd__o21ai_1
*I *610:Y O *D sky130_fd_sc_hd__nor2_1
*CAP
1 *611:C_N 0
2 *614:B1 0.000133378
3 *610:Y 6.18945e-05
4 *48:8 0.000195273
5 *614:B1 *614:A1 0
6 *614:B1 *614:A2 7.00889e-06
7 *48:8 *610:B 4.00541e-06
8 *611:A *48:8 8.63511e-05
9 *613:B1 *614:B1 7.63883e-05
10 *46:10 *614:B1 0.000180689
11 *47:10 *614:B1 0.000143733
*RES
1 *610:Y *48:8 2.755 
2 *48:8 *614:B1 8.885 
3 *48:8 *611:C_N 1.6 
*END

*D_NET *49 0.0043466
*CONN
*I *612:A I *D sky130_fd_sc_hd__clkbuf_1
*I *611:X O *D sky130_fd_sc_hd__or3b_1
*CAP
1 *612:A 0.00109191
2 *611:X 0.00109191
3 *612:A *546:B 3.27514e-05
4 *612:A *613:A2 0.000175045
5 *612:A *614:A1 5.65627e-05
6 *612:A *615:A1 0
7 *612:A *618:A 0.000239693
8 *612:A *619:B 4.38051e-05
9 *612:A *629:A 6.36679e-05
10 *612:A *630:B 4.80982e-05
11 *612:A *631:A 0.000114649
12 *612:A *658:CLK 3.72673e-05
13 *612:A *670:CLK 0.000669574
14 *612:A *672:D 3.44698e-05
15 *612:A *703:A 3.54721e-05
16 *612:A *60:10 0
17 *612:A *159:27 0.000136321
18 *612:A *159:38 0.000251239
19 *612:A *173:27 8.5242e-05
20 *17:80 *612:A 0.000138918
21 *17:154 *612:A 0
*RES
1 *611:X *612:A 32.31 
*END

*D_NET *50 0.000381208
*CONN
*I *617:B1 I *D sky130_fd_sc_hd__a211oi_1
*I *616:Y O *D sky130_fd_sc_hd__nand2_1
*CAP
1 *617:B1 0.000153281
2 *616:Y 0.000153281
3 *617:B1 *616:A 1.72517e-05
4 *617:B1 *616:B 9.53428e-06
5 *617:B1 *617:A1 1.17309e-05
6 *617:B1 *707:A 3.61284e-05
*RES
1 *616:Y *617:B1 5.51 
*END

*D_NET *51 0.000845132
*CONN
*I *620:A I *D sky130_fd_sc_hd__nand2_1
*I *618:X O *D sky130_fd_sc_hd__or2_1
*CAP
1 *620:A 0.000267059
2 *618:X 0.000267059
3 *620:A *618:A 3.72703e-05
4 *620:A *619:B 1.94892e-05
5 *620:A *627:B 2.23485e-05
6 *620:A *671:CLK 0
7 *620:A *60:10 3.25831e-05
8 *620:A *143:33 7.60965e-05
9 *620:A *173:27 3.18219e-05
10 *656:SET_B *620:A 9.14049e-05
*RES
1 *618:X *620:A 12.015 
*END

*D_NET *52 0.000714844
*CONN
*I *628:B I *D sky130_fd_sc_hd__or2_1
*I *620:B I *D sky130_fd_sc_hd__nand2_1
*I *629:A I *D sky130_fd_sc_hd__nand2_1
*I *619:Y O *D sky130_fd_sc_hd__nand2_1
*CAP
1 *628:B 0
2 *620:B 4.43404e-05
3 *629:A 4.62504e-05
4 *619:Y 6.76084e-05
5 *52:21 0.00013671
6 *52:6 0.000206228
7 *620:B *627:A 4.74638e-05
8 *620:B *60:10 5.83121e-06
9 *620:B *173:35 2.32597e-05
10 *629:A *60:10 3.52153e-05
11 *52:6 *627:A 2.65076e-05
12 *612:A *629:A 6.36679e-05
13 *684:A *629:A 1.17614e-05
*RES
1 *619:Y *52:6 2.395 
2 *52:6 *629:A 6.98 
3 *52:6 *52:21 1.5 
4 *52:21 *620:B 3.1825 
5 *52:21 *628:B 1.6 
*END

*D_NET *53 0.000611266
*CONN
*I *627:A I *D sky130_fd_sc_hd__nor2_1
*I *620:Y O *D sky130_fd_sc_hd__nand2_1
*CAP
1 *627:A 0.000123059
2 *620:Y 0.000123059
3 *627:A *619:A 4.82919e-05
4 *627:A *627:B 0.000156289
5 *627:A *173:35 8.65961e-05
6 *620:B *627:A 4.74638e-05
7 *52:6 *627:A 2.65076e-05
*RES
1 *620:Y *627:A 6.425 
*END

*D_NET *54 0.00118146
*CONN
*I *626:A I *D sky130_fd_sc_hd__nand3_4
*I *621:Y O *D sky130_fd_sc_hd__nand3_1
*CAP
1 *626:A 0.000196884
2 *621:Y 0.000196884
3 *626:A *589:B1 2.75229e-05
4 *626:A *591:A 0.000116853
5 *626:A *592:A 8.23457e-05
6 *626:A *89:12 0.000124895
7 *626:A *131:8 0.000219182
8 *38:10 *626:A 0.000116853
9 *45:10 *626:A 0.000100042
*RES
1 *621:Y *626:A 12.705 
*END

*D_NET *55 0.000486482
*CONN
*I *626:B I *D sky130_fd_sc_hd__nand3_4
*I *622:Y O *D sky130_fd_sc_hd__inv_2
*CAP
1 *626:B 0.000108659
2 *622:Y 0.000108659
3 *626:B *591:B 8.8266e-05
4 *626:B *59:14 1.34361e-05
5 *626:B *89:12 0.000116158
6 *626:B *90:87 5.13029e-05
*RES
1 *622:Y *626:B 9.63 
*END

*D_NET *56 0.00106798
*CONN
*I *625:A I *D sky130_fd_sc_hd__nand2_1
*I *623:Y O *D sky130_fd_sc_hd__nand2_1
*CAP
1 *625:A 0.00034837
2 *623:Y 0.00034837
3 *625:A *572:A 6.94356e-05
4 *625:A *608:B1 5.83121e-06
5 *625:A *609:A 0
6 *625:A *609:B 0.000235339
7 *625:A *625:B 0
8 *625:A *101:33 3.75126e-05
9 *625:A *105:36 3.91427e-06
10 *625:A *117:14 1.08758e-05
11 *625:A *144:50 8.33066e-06
*RES
1 *623:Y *625:A 12.69 
*END

*D_NET *57 0.000457202
*CONN
*I *625:B I *D sky130_fd_sc_hd__nand2_1
*I *624:Y O *D sky130_fd_sc_hd__nand3_1
*CAP
1 *625:B 0.000125967
2 *624:Y 0.000125967
3 *625:B *624:C 8.64421e-05
4 *625:B *101:33 0.000118827
5 *625:A *625:B 0
*RES
1 *624:Y *625:B 9.375 
*END

*D_NET *58 0.00102978
*CONN
*I *626:C I *D sky130_fd_sc_hd__nand3_4
*I *625:Y O *D sky130_fd_sc_hd__nand2_1
*CAP
1 *626:C 0.000226455
2 *625:Y 0.000226455
3 *626:C *572:A 8.49205e-05
4 *626:C *572:B 0.000117265
5 *626:C *589:A1 2.86691e-05
6 *626:C *589:A2 0.000201503
7 *626:C *685:A 9.3062e-06
8 *626:C *115:16 0
9 *603:B1 *626:C 0.00013521
*RES
1 *625:Y *626:C 12.645 
*END

*D_NET *59 0.0127738
*CONN
*I *653:B I *D sky130_fd_sc_hd__nor2_1
*I *655:B I *D sky130_fd_sc_hd__nor2_1
*I *640:B I *D sky130_fd_sc_hd__nor2_1
*I *649:B I *D sky130_fd_sc_hd__nor2_1
*I *644:B I *D sky130_fd_sc_hd__nor2_1
*I *631:B I *D sky130_fd_sc_hd__nor2_1
*I *627:B I *D sky130_fd_sc_hd__nor2_1
*I *636:B I *D sky130_fd_sc_hd__nor2_1
*I *626:Y O *D sky130_fd_sc_hd__nand3_4
*CAP
1 *653:B 0.000189769
2 *655:B 0
3 *640:B 1.8374e-05
4 *649:B 0.000313256
5 *644:B 0.000269155
6 *631:B 0.000194034
7 *627:B 0.000427429
8 *636:B 2.45538e-05
9 *626:Y 0.000728806
10 *59:106 0.000468427
11 *59:93 0.000363912
12 *59:58 0.000667353
13 *59:39 0.00102263
14 *59:26 0.00104223
15 *59:18 0.00108619
16 *59:14 0.000941986
17 *627:B *629:B 2.14129e-05
18 *627:B *60:10 7.30547e-05
19 *627:B *94:12 9.54399e-05
20 *627:B *173:35 0.000197269
21 *631:B *642:A 0.000170941
22 *640:B *640:A 5.19006e-06
23 *644:B *644:A 7.06865e-05
24 *644:B *143:118 1.47256e-05
25 *649:B *642:A 7.59067e-05
26 *649:B *649:A 0.000168753
27 *649:B *71:21 0.000245905
28 *649:B *177:12 0
29 *653:B *538:A 0.000134847
30 *653:B *655:A 5.31158e-06
31 *59:14 *536:B 6.14602e-05
32 *59:14 *550:A 4.72136e-05
33 *59:14 *579:B 1.7635e-05
34 *59:14 *580:B 0.000244935
35 *59:14 *593:B 0
36 *59:14 *616:B 0
37 *59:14 *617:A1 0
38 *59:14 *642:C 0.000319444
39 *59:14 *685:A 7.63125e-05
40 *59:14 *686:A 0.000272113
41 *59:14 *84:12 7.63711e-05
42 *59:14 *87:16 7.89767e-05
43 *59:14 *89:12 9.50342e-06
44 *59:14 *90:87 0
45 *59:14 *90:108 0
46 *59:14 *98:20 0
47 *59:14 *124:10 0
48 *59:14 *124:16 0
49 *59:14 *131:25 0
50 *59:14 *143:16 4.94122e-05
51 *59:14 *176:16 3.44087e-05
52 *59:18 *639:B 8.53011e-05
53 *59:18 *640:A 8.73525e-05
54 *59:18 *707:A 1.07593e-05
55 *59:26 *578:A 3.18332e-05
56 *59:26 *634:B 0
57 *59:26 *636:A 4.77757e-05
58 *59:26 *638:A 0
59 *59:26 *82:10 0.000100374
60 *59:26 *98:20 0
61 *59:26 *175:34 4.77757e-05
62 *59:26 *175:41 0.00035085
63 *59:39 *535:A 2.86975e-05
64 *59:39 *60:10 4.23703e-05
65 *59:39 *82:10 7.68414e-06
66 *59:39 *173:35 8.14011e-05
67 *59:39 *173:43 3.89563e-05
68 *59:39 *174:14 2.68464e-05
69 *59:58 *629:B 0.000112442
70 *59:58 *630:A 0.000177023
71 *59:58 *671:CLK 9.00706e-05
72 *59:58 *60:10 0.000123891
73 *59:93 *640:A 2.10905e-05
74 *59:93 *707:A 2.86691e-05
75 *59:106 *655:A 7.33357e-05
76 *59:106 *707:A 5.49399e-05
77 *620:A *627:B 2.23485e-05
78 *626:B *59:14 1.34361e-05
79 *627:A *627:B 0.000156289
80 *657:D *627:B 1.16578e-05
81 *658:D *631:B 6.72833e-06
82 *658:RESET_B *644:B 6.19551e-05
83 *660:D *59:106 5.52527e-05
84 *661:D *644:B 8.23457e-05
85 *662:D *649:B 0.000162318
86 *672:RESET_B *644:B 0
87 *684:A *644:B 0.000112929
88 *684:A *59:58 9.38158e-05
89 *17:130 *59:14 0
*RES
1 *626:Y *59:14 23.09 
2 *59:14 *59:18 4.52 
3 *59:18 *59:26 12.605 
4 *59:26 *636:B 1.96 
5 *59:26 *59:39 6.95 
6 *59:39 *627:B 10.65 
7 *59:39 *59:58 5.715 
8 *59:58 *631:B 7.17 
9 *59:58 *644:B 8.775 
10 *59:18 *649:B 11.61 
11 *59:14 *59:93 1.14 
12 *59:93 *640:B 1.96 
13 *59:93 *59:106 6.845 
14 *59:106 *655:B 3.6 
15 *59:106 *653:B 7.245 
*END

*D_NET *60 0.00317064
*CONN
*I *630:A I *D sky130_fd_sc_hd__nand2_1
*I *634:A I *D sky130_fd_sc_hd__nand2_1
*I *638:B I *D sky130_fd_sc_hd__or2_1
*I *633:B I *D sky130_fd_sc_hd__or2_1
*I *628:X O *D sky130_fd_sc_hd__or2_1
*CAP
1 *630:A 4.91257e-05
2 *634:A 0
3 *638:B 5.27251e-05
4 *633:B 0
5 *628:X 0.000155114
6 *60:22 0.00038415
7 *60:16 0.000658403
8 *60:10 0.000531217
9 *638:B *637:A 0.000123969
10 *60:10 *173:35 0.000157172
11 *60:16 *629:B 8.23457e-05
12 *60:16 *634:B 1.72577e-05
13 *60:22 *633:A 4.75959e-05
14 *60:22 *634:B 1.23379e-05
15 *60:22 *635:A 2.79137e-05
16 *60:22 *635:B 0.00012212
17 *60:22 *637:A 5.06132e-05
18 *612:A *60:10 0
19 *620:A *60:10 3.25831e-05
20 *620:B *60:10 5.83121e-06
21 *627:B *60:10 7.30547e-05
22 *629:A *60:10 3.52153e-05
23 *684:A *630:A 0.000169319
24 *684:A *60:10 3.92907e-05
25 *59:39 *60:10 4.23703e-05
26 *59:58 *630:A 0.000177023
27 *59:58 *60:10 0.000123891
*RES
1 *628:X *60:10 7.485 
2 *60:10 *60:16 6.95 
3 *60:16 *60:22 4.53 
4 *60:22 *633:B 1.6 
5 *60:22 *638:B 2.74 
6 *60:16 *634:A 1.6 
7 *60:10 *630:A 5.745 
*END

*D_NET *61 0.000289365
*CONN
*I *630:B I *D sky130_fd_sc_hd__nand2_1
*I *629:Y O *D sky130_fd_sc_hd__nand2_1
*CAP
1 *630:B 5.35719e-05
2 *629:Y 5.35719e-05
3 *612:A *630:B 4.80982e-05
4 *684:A *630:B 0.000134123
*RES
1 *629:Y *630:B 8.835 
*END

*D_NET *62 0.000731366
*CONN
*I *631:A I *D sky130_fd_sc_hd__nor2_1
*I *630:Y O *D sky130_fd_sc_hd__nand2_1
*CAP
1 *631:A 0.000177269
2 *630:Y 0.000177269
3 *631:A *671:CLK 2.51954e-05
4 *631:A *159:38 0.000115945
5 *612:A *631:A 0.000114649
6 *17:80 *631:A 0.000121039
*RES
1 *630:Y *631:A 10.41 
*END

*D_NET *63 0.000951974
*CONN
*I *634:B I *D sky130_fd_sc_hd__nand2_1
*I *633:A I *D sky130_fd_sc_hd__or2_1
*I *632:Y O *D sky130_fd_sc_hd__inv_2
*CAP
1 *634:B 0.000199734
2 *633:A 1.05036e-05
3 *632:Y 8.32719e-05
4 *63:8 0.000293509
5 *633:A *637:A 4.77719e-05
6 *634:B *635:A 2.86975e-05
7 *634:B *635:B 5.40034e-05
8 *634:B *636:A 8.64421e-05
9 *634:B *637:A 7.08493e-05
10 *63:8 *636:A 0
11 *63:8 *638:A 0
12 *59:26 *634:B 0
13 *60:16 *634:B 1.72577e-05
14 *60:22 *633:A 4.75959e-05
15 *60:22 *634:B 1.23379e-05
*RES
1 *632:Y *63:8 4.725 
2 *63:8 *633:A 4.05 
3 *63:8 *634:B 7.605 
*END

*D_NET *64 0.000830667
*CONN
*I *637:A I *D sky130_fd_sc_hd__nand2_1
*I *635:A I *D sky130_fd_sc_hd__nand2_1
*I *633:X O *D sky130_fd_sc_hd__or2_1
*CAP
1 *637:A 0.000204424
2 *635:A 1.04488e-05
3 *633:X 0
4 *64:4 0.000214873
5 *637:A *68:10 5.11067e-05
6 *633:A *637:A 4.77719e-05
7 *634:B *635:A 2.86975e-05
8 *634:B *637:A 7.08493e-05
9 *638:B *637:A 0.000123969
10 *60:22 *635:A 2.79137e-05
11 *60:22 *637:A 5.06132e-05
*RES
1 *633:X *64:4 1.6 
2 *64:4 *635:A 2.05 
3 *64:4 *637:A 6.19 
*END

*D_NET *65 0.000293122
*CONN
*I *635:B I *D sky130_fd_sc_hd__nand2_1
*I *634:Y O *D sky130_fd_sc_hd__nand2_1
*CAP
1 *635:B 5.36141e-05
2 *634:Y 5.36141e-05
3 *635:B *636:A 9.77048e-06
4 *634:B *635:B 5.40034e-05
5 *60:22 *635:B 0.00012212
*RES
1 *634:Y *635:B 5.27 
*END

*D_NET *66 0.000943896
*CONN
*I *636:A I *D sky130_fd_sc_hd__nor2_1
*I *635:Y O *D sky130_fd_sc_hd__nand2_1
*CAP
1 *636:A 0.000270256
2 *635:Y 0.000270256
3 *636:A *671:D 0.000232543
4 *636:A *82:10 2.68526e-05
5 *634:B *636:A 8.64421e-05
6 *635:B *636:A 9.77048e-06
7 *59:26 *636:A 4.77757e-05
8 *63:8 *636:A 0
*RES
1 *635:Y *636:A 12 
*END

*D_NET *67 0.000451387
*CONN
*I *639:A I *D sky130_fd_sc_hd__nand2_1
*I *637:Y O *D sky130_fd_sc_hd__nand2_1
*CAP
1 *639:A 0.000174239
2 *637:Y 0.000174239
3 *639:A *637:B 2.01737e-05
4 *639:A *642:C 7.08331e-05
5 *639:A *97:12 1.19028e-05
*RES
1 *637:Y *639:A 9.975 
*END

*D_NET *68 0.0014263
*CONN
*I *641:B I *D sky130_fd_sc_hd__nand2b_1
*I *639:B I *D sky130_fd_sc_hd__nand2_1
*I *638:X O *D sky130_fd_sc_hd__or2_1
*CAP
1 *641:B 0.000241789
2 *639:B 0.000100325
3 *638:X 0.000193845
4 *68:10 0.000535959
5 *639:B *707:A 0.000156629
6 *641:B *642:A 4.69705e-05
7 *641:B *643:B 6.03947e-06
8 *641:B *177:12 8.33066e-06
9 *637:A *68:10 5.11067e-05
10 *59:18 *639:B 8.53011e-05
*RES
1 *638:X *68:10 6.375 
2 *68:10 *639:B 6.12 
3 *68:10 *641:B 7.89375 
*END

*D_NET *69 0.000446052
*CONN
*I *640:A I *D sky130_fd_sc_hd__nor2_1
*I *639:Y O *D sky130_fd_sc_hd__nand2_1
*CAP
1 *640:A 6.937e-05
2 *639:Y 6.937e-05
3 *640:A *707:A 0.000193679
4 *640:B *640:A 5.19006e-06
5 *59:18 *640:A 8.73525e-05
6 *59:93 *640:A 2.10905e-05
*RES
1 *639:Y *640:A 5.39 
*END

*D_NET *70 0.000198074
*CONN
*I *643:A I *D sky130_fd_sc_hd__nand2_1
*I *641:Y O *D sky130_fd_sc_hd__nand2b_1
*CAP
1 *643:A 8.40669e-05
2 *641:Y 8.40669e-05
3 *643:A *643:B 2.53034e-05
4 *643:A *644:A 4.6368e-06
*RES
1 *641:Y *643:A 4.7 
*END

*D_NET *71 0.00167181
*CONN
*I *647:A I *D sky130_fd_sc_hd__nand2_1
*I *646:B I *D sky130_fd_sc_hd__nor2_1
*I *643:B I *D sky130_fd_sc_hd__nand2_1
*I *642:Y O *D sky130_fd_sc_hd__nand3_1
*CAP
1 *647:A 6.31408e-05
2 *646:B 0
3 *643:B 0.00024122
4 *642:Y 0
5 *71:21 0.000276822
6 *71:4 0.000454901
7 *643:B *177:21 8.53011e-05
8 *647:A *646:A 4.83425e-05
9 *647:A *74:14 7.11365e-05
10 *71:21 *537:B 8.35118e-05
11 *71:21 *649:A 8.53113e-06
12 *71:21 *74:14 2.41307e-05
13 *71:21 *177:21 3.75203e-05
14 *641:B *643:B 6.03947e-06
15 *643:A *643:B 2.53034e-05
16 *649:B *71:21 0.000245905
*RES
1 *642:Y *71:4 1.6 
2 *71:4 *643:B 4.735 
3 *71:4 *71:21 8.05 
4 *71:21 *646:B 1.6 
5 *71:21 *647:A 3.46 
*END

*D_NET *72 0.00169237
*CONN
*I *644:A I *D sky130_fd_sc_hd__nor2_1
*I *643:Y O *D sky130_fd_sc_hd__nand2_1
*CAP
1 *644:A 0.000716818
2 *643:Y 0.000716818
3 *644:A *174:14 2.02993e-05
4 *643:A *644:A 4.6368e-06
5 *644:B *644:A 7.06865e-05
6 *684:A *644:A 0.000115464
7 *17:74 *644:A 4.76437e-05
*RES
1 *643:Y *644:A 15.93 
*END

*D_NET *73 0.000787421
*CONN
*I *647:B I *D sky130_fd_sc_hd__nand2_1
*I *646:A I *D sky130_fd_sc_hd__nor2_1
*I *645:Y O *D sky130_fd_sc_hd__inv_2
*CAP
1 *647:B 0
2 *646:A 9.15115e-05
3 *645:Y 0.000197965
4 *73:12 0.000289477
5 *646:A *648:B_N 1.08036e-05
6 *73:12 *648:B_N 1.79174e-05
7 *73:12 *84:12 7.41023e-05
8 *73:12 *85:12 5.83121e-06
9 *647:A *646:A 4.83425e-05
10 *660:RESET_B *73:12 5.14703e-05
*RES
1 *645:Y *73:12 9.41 
2 *73:12 *646:A 3.46 
3 *73:12 *647:B 1.6 
*END

*D_NET *74 0.00253225
*CONN
*I *651:A I *D sky130_fd_sc_hd__nand2_1
*I *650:B I *D sky130_fd_sc_hd__or2_1
*I *648:A I *D sky130_fd_sc_hd__or2b_1
*I *646:Y O *D sky130_fd_sc_hd__nor2_1
*CAP
1 *651:A 2.8504e-05
2 *650:B 0.000228563
3 *648:A 0
4 *646:Y 0.00018917
5 *74:25 0.00056228
6 *74:14 0.000494383
7 *650:B *653:A 0.00019637
8 *650:B *143:114 0
9 *74:14 *642:C 6.29421e-05
10 *74:25 *537:A 7.30505e-05
11 *74:25 *537:B 2.62602e-05
12 *74:25 *642:C 5.83121e-06
13 *74:25 *651:B 3.5678e-06
14 *74:25 *84:12 8.52972e-05
15 *647:A *74:14 7.11365e-05
16 *660:RESET_B *650:B 5.4565e-05
17 *17:37 *650:B 0.0004262
18 *71:21 *74:14 2.41307e-05
*RES
1 *646:Y *74:14 8.405 
2 *74:14 *648:A 1.6 
3 *74:14 *74:25 5.22 
4 *74:25 *650:B 11.135 
5 *74:25 *651:A 2.05 
*END

*D_NET *75 0.000453808
*CONN
*I *648:B_N I *D sky130_fd_sc_hd__or2b_1
*I *647:Y O *D sky130_fd_sc_hd__nand2_1
*CAP
1 *648:B_N 0.000134716
2 *647:Y 0.000134716
3 *648:B_N *642:C 0.000131525
4 *648:B_N *84:12 2.41307e-05
5 *646:A *648:B_N 1.08036e-05
6 *73:12 *648:B_N 1.79174e-05
*RES
1 *647:Y *648:B_N 9.63 
*END

*D_NET *76 0.000518274
*CONN
*I *649:A I *D sky130_fd_sc_hd__nor2_1
*I *648:X O *D sky130_fd_sc_hd__or2b_1
*CAP
1 *649:A 0.000170495
2 *648:X 0.000170495
3 *649:B *649:A 0.000168753
4 *71:21 *649:A 8.53113e-06
*RES
1 *648:X *649:A 10.875 
*END

*D_NET *77 0.000111545
*CONN
*I *652:A I *D sky130_fd_sc_hd__nand2_1
*I *650:X O *D sky130_fd_sc_hd__or2_1
*CAP
1 *652:A 5.81042e-06
2 *650:X 5.81042e-06
3 *652:A *652:B 4.99619e-05
4 *17:37 *652:A 4.99619e-05
*RES
1 *650:X *652:A 3.65 
*END

*D_NET *78 0.00265137
*CONN
*I *652:B I *D sky130_fd_sc_hd__nand2_1
*I *654:B I *D sky130_fd_sc_hd__xor2_1
*I *651:Y O *D sky130_fd_sc_hd__nand2_1
*CAP
1 *652:B 0.00025595
2 *654:B 0.000341231
3 *651:Y 0.000173596
4 *78:8 0.000770777
5 *652:B *143:114 0.000124311
6 *654:B *538:A 7.28465e-06
7 *654:B *655:A 8.52972e-05
8 *654:B *143:95 0.00011023
9 *654:B *143:101 0.000177023
10 *654:B *143:114 5.04423e-05
11 *78:8 *651:B 8.52972e-05
12 *78:8 *179:10 0.000118081
13 *652:A *652:B 4.99619e-05
14 *17:37 *652:B 0.000301891
*RES
1 *651:Y *78:8 5.775 
2 *78:8 *654:B 10.38 
3 *78:8 *652:B 9.15 
*END

*D_NET *79 0.00112698
*CONN
*I *653:A I *D sky130_fd_sc_hd__nor2_1
*I *652:Y O *D sky130_fd_sc_hd__nand2_1
*CAP
1 *653:A 0.000320837
2 *652:Y 0.000320837
3 *653:A *538:A 2.98587e-05
4 *653:A *143:101 9.12494e-06
5 *653:A *143:114 0.000103473
6 *650:B *653:A 0.00019637
7 *17:37 *653:A 0.000146484
*RES
1 *652:Y *653:A 12.135 
*END

*D_NET *80 0.00083389
*CONN
*I *655:A I *D sky130_fd_sc_hd__nor2_1
*I *654:X O *D sky130_fd_sc_hd__xor2_1
*CAP
1 *655:A 0.000214628
2 *654:X 0.000214628
3 *655:A *538:A 5.31158e-06
4 *653:B *655:A 5.31158e-06
5 *654:B *655:A 8.52972e-05
6 *660:D *655:A 0.000235378
7 *59:106 *655:A 7.33357e-05
*RES
1 *654:X *655:A 12.12 
*END

*D_NET *81 0.00146845
*CONN
*I *536:A I *D sky130_fd_sc_hd__nand2_1
*I *534:Y O *D sky130_fd_sc_hd__nor2_1
*CAP
1 *536:A 0.000391806
2 *534:Y 0.000391806
3 *536:A *536:B 7.0642e-05
4 *536:A *580:B 0.000361853
5 *536:A *83:10 4.9253e-06
6 *536:A *98:20 0.000174598
7 *536:A *143:16 4.82863e-05
8 *17:130 *536:A 2.45351e-05
*RES
1 *534:Y *536:A 15.165 
*END

*D_NET *82 0.00351801
*CONN
*I *579:A I *D sky130_fd_sc_hd__nor2_1
*I *536:B I *D sky130_fd_sc_hd__nand2_1
*I *535:Y O *D sky130_fd_sc_hd__nand2_1
*CAP
1 *579:A 7.48689e-05
2 *536:B 0.000188215
3 *535:Y 0.000699892
4 *82:10 0.000962977
5 *536:B *580:B 0.000196381
6 *536:B *124:10 0.000122331
7 *579:A *579:B 1.16578e-05
8 *579:A *176:8 2.75229e-05
9 *579:A *176:16 4.82863e-05
10 *82:10 *578:A 3.52923e-05
11 *82:10 *94:6 0.000123274
12 *82:10 *122:10 0.000203178
13 *82:10 *173:43 0.00016031
14 *82:10 *175:34 2.68526e-05
15 *82:10 *175:41 0.000106754
16 *82:10 *176:16 9.13951e-05
17 *536:A *536:B 7.0642e-05
18 *636:A *82:10 2.68526e-05
19 *17:130 *536:B 0.000171808
20 *59:14 *536:B 6.14602e-05
21 *59:26 *82:10 0.000100374
22 *59:39 *82:10 7.68414e-06
*RES
1 *535:Y *82:10 13.555 
2 *82:10 *536:B 10.715 
3 *82:10 *579:A 3.265 
*END

*D_NET *83 0.000812634
*CONN
*I *540:A I *D sky130_fd_sc_hd__nor2_1
*I *576:A1 I *D sky130_fd_sc_hd__o21bai_1
*I *536:Y O *D sky130_fd_sc_hd__nand2_1
*CAP
1 *540:A 0
2 *576:A1 0.000126116
3 *536:Y 0.000196576
4 *83:10 0.000322692
5 *576:A1 *582:B 0
6 *576:A1 *585:B 0
7 *576:A1 *129:12 0.000162325
8 *83:10 *86:12 0
9 *536:A *83:10 4.9253e-06
*RES
1 *536:Y *83:10 6.12 
2 *83:10 *576:A1 6 
3 *83:10 *540:A 3.6 
*END

*D_NET *84 0.00143591
*CONN
*I *539:A I *D sky130_fd_sc_hd__nand2_1
*I *551:A I *D sky130_fd_sc_hd__nand3_1
*I *537:Y O *D sky130_fd_sc_hd__nor2_1
*CAP
1 *539:A 0
2 *551:A 8.98731e-05
3 *537:Y 0.000311056
4 *84:12 0.000400929
5 *551:A *551:B 0.000101676
6 *551:A *97:12 9.77392e-05
7 *84:12 *550:A 9.12494e-06
8 *84:12 *85:12 0.000165611
9 *648:B_N *84:12 2.41307e-05
10 *59:14 *84:12 7.63711e-05
11 *73:12 *84:12 7.41023e-05
12 *74:25 *84:12 8.52972e-05
*RES
1 *537:Y *84:12 12.11 
2 *84:12 *551:A 3.805 
3 *84:12 *539:A 1.6 
*END

*D_NET *85 0.00181114
*CONN
*I *551:B I *D sky130_fd_sc_hd__nand3_1
*I *539:B I *D sky130_fd_sc_hd__nand2_1
*I *538:Y O *D sky130_fd_sc_hd__nor2_1
*CAP
1 *551:B 0.000168263
2 *539:B 0
3 *538:Y 0.000481665
4 *85:12 0.000649928
5 *551:B *86:10 2.01737e-05
6 *551:B *97:12 2.1471e-05
7 *85:12 *538:A 2.88357e-05
8 *85:12 *707:A 8.37253e-05
9 *551:A *551:B 0.000101676
10 *660:RESET_B *85:12 5.3468e-05
11 *664:D *85:12 3.04958e-05
12 *73:12 *85:12 5.83121e-06
13 *84:12 *85:12 0.000165611
*RES
1 *538:Y *85:12 13.175 
2 *85:12 *539:B 1.6 
3 *85:12 *551:B 4.84 
*END

*D_NET *86 0.0023458
*CONN
*I *580:A I *D sky130_fd_sc_hd__nor2_1
*I *540:B I *D sky130_fd_sc_hd__nor2_1
*I *576:A2 I *D sky130_fd_sc_hd__o21bai_1
*I *539:Y O *D sky130_fd_sc_hd__nand2_1
*CAP
1 *580:A 0
2 *540:B 6.50097e-05
3 *576:A2 0.000145266
4 *539:Y 0.000375833
5 *86:12 0.000354257
6 *86:10 0.000519815
7 *540:B *585:B 4.82919e-05
8 *540:B *616:B 4.66108e-05
9 *540:B *87:6 2.0514e-05
10 *540:B *87:16 4.41506e-05
11 *540:B *125:8 4.03631e-05
12 *540:B *129:12 4.99619e-05
13 *576:A2 *576:B1_N 9.53428e-06
14 *576:A2 *577:A 1.70733e-05
15 *576:A2 *582:B 0.000160658
16 *576:A2 *617:A2 2.75145e-05
17 *576:A2 *707:A 6.14689e-05
18 *576:A2 *119:12 0.00010878
19 *86:10 *707:A 7.67296e-05
20 *86:12 *582:B 2.92496e-05
21 *86:12 *707:A 6.15341e-05
22 *551:B *86:10 2.01737e-05
23 *660:D *86:10 0
24 *660:RESET_B *86:10 6.30127e-05
25 *83:10 *86:12 0
*RES
1 *539:Y *86:10 9.45 
2 *86:10 *86:12 2.145 
3 *86:12 *576:A2 7.44 
4 *86:12 *540:B 5.445 
5 *86:10 *580:A 3.6 
*END

*D_NET *87 0.0041727
*CONN
*I *585:B I *D sky130_fd_sc_hd__nor2_1
*I *615:C1 I *D sky130_fd_sc_hd__o211a_1
*I *546:A I *D sky130_fd_sc_hd__nand2_1
*I *540:Y O *D sky130_fd_sc_hd__nor2_1
*CAP
1 *585:B 5.03327e-05
2 *615:C1 0
3 *546:A 0.000302744
4 *540:Y 5.15858e-05
5 *87:16 0.00137534
6 *87:6 0.00117452
7 *546:A *615:A2 4.77757e-05
8 *546:A *615:B1 4.77757e-05
9 *546:A *100:10 7.30479e-05
10 *585:B *582:B 7.30547e-05
11 *585:B *125:8 4.82919e-05
12 *87:6 *129:12 4.99619e-05
13 *87:16 *615:A2 0.000195432
14 *87:16 *615:B1 0.00018285
15 *87:16 *616:B 0.000131572
16 *87:16 *124:10 0
17 *87:16 *143:16 1.32843e-05
18 *540:B *585:B 4.82919e-05
19 *540:B *87:6 2.0514e-05
20 *540:B *87:16 4.41506e-05
21 *576:A1 *585:B 0
22 *607:A *546:A 0.000163199
23 *59:14 *87:16 7.89767e-05
*RES
1 *540:Y *87:6 2.395 
2 *87:6 *87:16 20.335 
3 *87:16 *546:A 11.15 
4 *87:16 *615:C1 1.6 
5 *87:6 *585:B 6.92 
*END

*D_NET *88 0.00890794
*CONN
*I *597:A I *D sky130_fd_sc_hd__nand2_1
*I *605:B1 I *D sky130_fd_sc_hd__o21a_1
*I *569:B I *D sky130_fd_sc_hd__nor2_1
*I *557:A I *D sky130_fd_sc_hd__nor2_1
*I *590:B1 I *D sky130_fd_sc_hd__o311a_1
*I *542:B I *D sky130_fd_sc_hd__nor2_1
*I *541:Y O *D sky130_fd_sc_hd__inv_6
*CAP
1 *597:A 0.000386647
2 *605:B1 5.12629e-05
3 *569:B 0.000120233
4 *557:A 0
5 *590:B1 0.000296969
6 *542:B 1.20926e-05
7 *541:Y 0
8 *88:48 0.000400006
9 *88:18 0.00180827
10 *88:12 0.00228675
11 *88:6 0.000699456
12 *88:4 0.000527074
13 *542:B *542:A 5.02814e-06
14 *542:B *89:12 8.7152e-06
15 *542:B *90:87 3.63701e-06
16 *569:B *557:B 8.12632e-05
17 *569:B *569:A 2.54278e-05
18 *569:B *708:A 7.27003e-05
19 *569:B *114:8 4.6771e-06
20 *590:B1 *542:A 2.55873e-05
21 *590:B1 *559:B1 0.000267086
22 *590:B1 *590:C1 4.66108e-05
23 *590:B1 *90:10 0.000101637
24 *590:B1 *90:87 0.000151347
25 *590:B1 *101:33 0.000114518
26 *590:B1 *144:93 4.38116e-05
27 *597:A *605:A2 3.6355e-05
28 *597:A *90:38 0.000345118
29 *597:A *105:14 7.2208e-05
30 *597:A *144:15 4.77757e-05
31 *597:A *144:93 3.6355e-05
32 *88:6 *605:A2 0.000123955
33 *88:12 *570:B 0
34 *88:18 *146:33 0.000227159
35 *88:48 *557:B 0
36 *88:48 *569:A 0
37 *88:48 *570:B 0
38 *607:A *88:48 0.000166346
39 *665:D *88:12 1.54061e-06
40 *46:10 *88:12 0.000103568
41 *46:10 *88:48 0.000206745
*RES
1 *541:Y *88:4 1.6 
2 *88:4 *88:6 1.83 
3 *88:6 *88:12 10.1675 
4 *88:12 *88:18 3.1356 
5 *88:18 *542:B 3.8325 
6 *88:18 *590:B1 11.1375 
7 *88:12 *88:48 7.4525 
8 *88:48 *557:A 1.6 
9 *88:48 *569:B 4.705 
10 *88:6 *605:B1 2.47 
11 *88:4 *597:A 11.585 
*END

*D_NET *89 0.00242754
*CONN
*I *587:A I *D sky130_fd_sc_hd__and2_1
*I *616:A I *D sky130_fd_sc_hd__nand2_1
*I *544:A I *D sky130_fd_sc_hd__nand2_1
*I *542:Y O *D sky130_fd_sc_hd__nor2_1
*CAP
1 *587:A 0
2 *616:A 0.000270242
3 *544:A 0
4 *542:Y 0.000146929
5 *89:16 0.00055299
6 *89:12 0.000429677
7 *616:A *545:A 1.92979e-05
8 *616:A *582:B 3.18735e-05
9 *616:A *616:B 7.34961e-06
10 *616:A *617:A1 0.000122331
11 *616:A *124:16 4.43044e-05
12 *89:12 *542:A 8.7152e-06
13 *89:12 *610:B 6.97118e-05
14 *89:12 *685:A 5.36851e-05
15 *89:12 *90:87 0
16 *89:12 *131:8 3.51884e-05
17 *89:16 *583:B 2.66861e-05
18 *89:16 *587:B 1.52184e-05
19 *89:16 *591:A 0
20 *89:16 *90:87 0
21 *89:16 *90:108 0
22 *89:16 *124:16 5.53249e-06
23 *89:16 *127:10 0
24 *542:B *89:12 8.7152e-06
25 *617:B1 *616:A 1.72517e-05
26 *626:A *89:12 0.000124895
27 *626:B *89:12 0.000116158
28 *45:10 *89:12 0.000311288
29 *59:14 *89:12 9.50342e-06
*RES
1 *542:Y *89:12 10.61 
2 *89:12 *89:16 6.44 
3 *89:16 *544:A 3.6 
4 *89:16 *616:A 7.77 
5 *89:12 *587:A 1.6 
*END

*D_NET *90 0.010198
*CONN
*I *617:A1 I *D sky130_fd_sc_hd__a211oi_1
*I *544:B I *D sky130_fd_sc_hd__nand2_1
*I *569:A I *D sky130_fd_sc_hd__nor2_1
*I *590:C1 I *D sky130_fd_sc_hd__o311a_1
*I *563:B I *D sky130_fd_sc_hd__nor2_1
*I *597:B I *D sky130_fd_sc_hd__nand2_1
*I *608:A2 I *D sky130_fd_sc_hd__a21oi_1
*I *605:A2 I *D sky130_fd_sc_hd__o21a_1
*I *543:X O *D sky130_fd_sc_hd__clkbuf_2
*CAP
1 *617:A1 0.000164611
2 *544:B 5.74598e-05
3 *569:A 0.00081465
4 *590:C1 1.36534e-05
5 *563:B 6.72387e-05
6 *597:B 0
7 *608:A2 0.000348622
8 *605:A2 3.21703e-05
9 *543:X 0.000167661
10 *90:108 0.000351251
11 *90:87 0.00128312
12 *90:38 0.000638778
13 *90:30 0.000401568
14 *90:20 0.000344775
15 *90:10 0.000207658
16 *90:8 0.000567001
17 *544:B *582:A 4.11713e-05
18 *563:B *565:B 5.10477e-05
19 *563:B *568:A 3.91137e-05
20 *563:B *571:A 3.0688e-05
21 *569:A *557:B 7.50972e-05
22 *569:A *570:A 7.98745e-06
23 *569:A *588:B 1.56428e-05
24 *569:A *114:8 9.76407e-06
25 *569:A *141:8 0.000271308
26 *590:C1 *144:93 4.66108e-05
27 *605:A2 *605:A1 0.000123955
28 *608:A2 *605:A1 0.000189845
29 *608:A2 *671:D 1.7635e-05
30 *608:A2 *144:50 6.13162e-05
31 *617:A1 *707:A 2.75229e-05
32 *617:A1 *124:16 6.28843e-05
33 *90:8 *142:8 2.88357e-05
34 *90:10 *559:B1 4.59022e-06
35 *90:10 *146:72 0.000199811
36 *90:20 *559:B1 2.50751e-05
37 *90:20 *144:93 0.000302126
38 *90:20 *146:72 3.81897e-05
39 *90:30 *144:93 0.000271125
40 *90:38 *541:A 0.000203576
41 *90:38 *605:A1 7.46591e-05
42 *90:38 *105:14 8.72419e-05
43 *90:87 *587:B 0
44 *90:87 *591:C 1.74776e-05
45 *90:87 *131:25 0.000114492
46 *90:87 *146:72 0.000256523
47 *90:108 *593:B 0.000160863
48 *90:108 *124:16 1.70935e-05
49 *90:108 *131:25 6.68849e-05
50 *542:B *90:87 3.63701e-06
51 *569:B *569:A 2.54278e-05
52 *590:B1 *590:C1 4.66108e-05
53 *590:B1 *90:10 0.000101637
54 *590:B1 *90:87 0.000151347
55 *594:A *544:B 4.82863e-05
56 *597:A *605:A2 3.6355e-05
57 *597:A *90:38 0.000345118
58 *602:A2 *90:30 0.000156629
59 *602:B1 *563:B 2.98587e-05
60 *602:B1 *90:20 0.000267554
61 *602:B1 *90:30 2.3228e-05
62 *602:C1 *563:B 5.66602e-05
63 *602:C1 *90:30 9.12494e-06
64 *606:B *608:A2 0.000173049
65 *616:A *617:A1 0.000122331
66 *617:B1 *617:A1 1.17309e-05
67 *626:B *90:87 5.13029e-05
68 *26:10 *90:30 1.38207e-05
69 *26:10 *90:38 0
70 *59:14 *617:A1 0
71 *59:14 *90:87 0
72 *59:14 *90:108 0
73 *88:6 *605:A2 0.000123955
74 *88:48 *569:A 0
75 *89:12 *90:87 0
76 *89:16 *90:87 0
77 *89:16 *90:108 0
*RES
1 *543:X *90:8 5.775 
2 *90:8 *90:10 2.4 
3 *90:10 *90:20 7.93 
4 *90:20 *90:30 6.035 
5 *90:30 *90:38 10.48 
6 *90:38 *605:A2 3.085 
7 *90:38 *608:A2 12.92 
8 *90:30 *597:B 1.6 
9 *90:20 *563:B 5.49 
10 *90:10 *590:C1 4.05 
11 *90:8 *90:87 7.5 
12 *90:87 *569:A 19.825 
13 *90:87 *90:108 2.91 
14 *90:108 *544:B 4.755 
15 *90:108 *617:A1 6.915 
*END

*D_NET *91 0.00094025
*CONN
*I *545:A I *D sky130_fd_sc_hd__inv_2
*I *544:Y O *D sky130_fd_sc_hd__nand2_1
*CAP
1 *545:A 0.000270678
2 *544:Y 0.000270678
3 *545:A *583:A 1.92979e-05
4 *545:A *92:14 0.000102577
5 *545:A *92:18 0.000219046
6 *545:A *124:16 1.93765e-05
7 *545:A *129:12 1.92979e-05
8 *616:A *545:A 1.92979e-05
*RES
1 *544:Y *545:A 9.2274 
*END

*D_NET *92 0.00532836
*CONN
*I *577:B I *D sky130_fd_sc_hd__nand2_1
*I *582:C I *D sky130_fd_sc_hd__nand3_1
*I *546:B I *D sky130_fd_sc_hd__nand2_1
*I *613:A2 I *D sky130_fd_sc_hd__a21o_1
*I *545:Y O *D sky130_fd_sc_hd__inv_2
*CAP
1 *577:B 0.000238659
2 *582:C 3.80439e-05
3 *546:B 2.18061e-05
4 *613:A2 5.09723e-05
5 *545:Y 0
6 *92:18 0.00169918
7 *92:14 0.00180466
8 *92:4 0.000378878
9 *577:B *129:12 0
10 *582:C *582:B 7.9642e-06
11 *582:C *583:B 8.41015e-06
12 *613:A2 *614:A1 3.09164e-05
13 *613:A2 *93:8 0.000109995
14 *92:14 *127:10 7.00889e-06
15 *92:14 *129:12 5.05066e-06
16 *92:18 *671:D 1.48965e-05
17 *545:A *92:14 0.000102577
18 *545:A *92:18 0.000219046
19 *594:A *582:C 5.96859e-05
20 *594:A *92:14 1.79483e-05
21 *607:A *613:A2 0
22 *612:A *546:B 3.27514e-05
23 *612:A *613:A2 0.000175045
24 *684:A *92:18 0.000304867
*RES
1 *545:Y *92:4 1.6 
2 *92:4 *92:14 4.02703 
3 *92:14 *92:18 3.6844 
4 *92:18 *613:A2 5.6175 
5 *92:18 *546:B 4.0875 
6 *92:14 *582:C 4.8425 
7 *92:4 *577:B 9.23 
*END

*D_NET *93 0.00185333
*CONN
*I *554:A I *D sky130_fd_sc_hd__nor2_1
*I *614:A1 I *D sky130_fd_sc_hd__o21ai_1
*I *546:Y O *D sky130_fd_sc_hd__nand2_1
*CAP
1 *554:A 0.00021027
2 *614:A1 0.000205604
3 *546:Y 2.87519e-05
4 *93:8 0.000444626
5 *554:A *554:B 0.000134704
6 *554:A *669:D 1.61831e-05
7 *614:A1 *614:A2 0.000278123
8 *614:A1 *669:CLK 3.6042e-05
9 *614:A1 *670:CLK 2.03321e-05
10 *614:A1 *100:10 6.45236e-05
11 *93:8 *100:10 0.000118527
12 *612:A *614:A1 5.65627e-05
13 *613:A2 *614:A1 3.09164e-05
14 *613:A2 *93:8 0.000109995
15 *613:B1 *554:A 8.88715e-05
16 *614:B1 *614:A1 0
17 *668:D *614:A1 0
18 *47:10 *614:A1 9.29751e-06
*RES
1 *546:Y *93:8 4.98 
2 *93:8 *614:A1 8.94 
3 *93:8 *554:A 7.515 
*END

*D_NET *94 0.00320605
*CONN
*I *549:A I *D sky130_fd_sc_hd__nand2_1
*I *615:A1 I *D sky130_fd_sc_hd__o211a_1
*I *629:B I *D sky130_fd_sc_hd__nand2_1
*I *628:A I *D sky130_fd_sc_hd__or2_1
*I *547:Y O *D sky130_fd_sc_hd__inv_2
*CAP
1 *549:A 0.000180792
2 *615:A1 0.000207967
3 *629:B 0.000118094
4 *628:A 0
5 *547:Y 0.000217136
6 *94:34 0.000509725
7 *94:12 0.000209255
8 *94:6 0.000429263
9 *549:A *549:B 5.12969e-06
10 *549:A *618:A 5.83121e-06
11 *549:A *708:A 5.3844e-05
12 *549:A *159:10 9.43764e-06
13 *615:A1 *708:A 0
14 *615:A1 *143:33 5.4003e-05
15 *615:A1 *159:10 4.31921e-05
16 *615:A1 *159:27 2.42236e-05
17 *629:B *671:CLK 0.000134827
18 *94:6 *173:35 8.63496e-05
19 *94:6 *173:43 2.14005e-05
20 *94:12 *671:CLK 9.54399e-05
21 *94:12 *173:35 8.23457e-05
22 *94:34 *671:CLK 0.000116853
23 *94:34 *143:33 0.000127373
24 *94:34 *159:27 3.86529e-05
25 *94:34 *173:43 0
26 *612:A *615:A1 0
27 *627:B *629:B 2.14129e-05
28 *627:B *94:12 9.54399e-05
29 *59:58 *629:B 0.000112442
30 *60:16 *629:B 8.23457e-05
31 *82:10 *94:6 0.000123274
*RES
1 *547:Y *94:6 4.465 
2 *94:6 *94:12 3.92 
3 *94:12 *628:A 3.6 
4 *94:12 *629:B 6.375 
5 *94:6 *94:34 4.91 
6 *94:34 *615:A1 6.96 
7 *94:34 *549:A 6.495 
*END

*D_NET *95 0.000193246
*CONN
*I *549:B I *D sky130_fd_sc_hd__nand2_1
*I *548:Y O *D sky130_fd_sc_hd__inv_2
*CAP
1 *549:B 5.11871e-05
2 *548:Y 5.11871e-05
3 *549:B *553:A 2.49909e-05
4 *549:B *708:A 1.08758e-05
5 *549:B *96:8 4.98756e-05
6 *549:A *549:B 5.12969e-06
*RES
1 *548:Y *549:B 4.355 
*END

*D_NET *96 0.000992876
*CONN
*I *584:A2 I *D sky130_fd_sc_hd__a21oi_1
*I *552:B I *D sky130_fd_sc_hd__or3_1
*I *549:Y O *D sky130_fd_sc_hd__nand2_1
*CAP
1 *584:A2 0
2 *552:B 8.70507e-05
3 *549:Y 0.00031541
4 *96:8 0.00040246
5 *96:8 *552:C 5.78262e-05
6 *96:8 *553:A 6.61442e-05
7 *96:8 *708:A 1.41095e-05
8 *549:B *96:8 4.98756e-05
*RES
1 *549:Y *96:8 6.895 
2 *96:8 *552:B 2.92 
3 *96:8 *584:A2 1.6 
*END

*D_NET *97 0.00051593
*CONN
*I *551:C I *D sky130_fd_sc_hd__nand3_1
*I *637:B I *D sky130_fd_sc_hd__nand2_1
*I *550:Y O *D sky130_fd_sc_hd__inv_2
*CAP
1 *551:C 0
2 *637:B 1.75847e-05
3 *550:Y 0.000164737
4 *97:12 0.000182322
5 *551:A *97:12 9.77392e-05
6 *551:B *97:12 2.1471e-05
7 *639:A *637:B 2.01737e-05
8 *639:A *97:12 1.19028e-05
*RES
1 *550:Y *97:12 4.255 
2 *97:12 *637:B 2.05 
3 *97:12 *551:C 1.6 
*END

*D_NET *98 0.00188589
*CONN
*I *584:B1 I *D sky130_fd_sc_hd__a21oi_1
*I *552:C I *D sky130_fd_sc_hd__or3_1
*I *551:Y O *D sky130_fd_sc_hd__nand3_1
*CAP
1 *584:B1 0
2 *552:C 0.000169119
3 *551:Y 0.00044322
4 *98:20 0.000612338
5 *552:C *584:A1 1.07157e-05
6 *552:C *175:8 2.78196e-05
7 *98:20 *534:B 2.10433e-05
8 *98:20 *580:B 9.72152e-05
9 *98:20 *642:C 3.07854e-05
10 *98:20 *686:A 0.000164874
11 *98:20 *122:10 0
12 *98:20 *143:16 7.63359e-05
13 *536:A *98:20 0.000174598
14 *59:14 *98:20 0
15 *59:26 *98:20 0
16 *96:8 *552:C 5.78262e-05
*RES
1 *551:Y *98:20 17.88 
2 *98:20 *552:C 8.165 
3 *98:20 *584:B1 1.6 
*END

*D_NET *99 0.00146021
*CONN
*I *553:A I *D sky130_fd_sc_hd__inv_2
*I *552:X O *D sky130_fd_sc_hd__or3_1
*CAP
1 *553:A 0.000409206
2 *552:X 0.000409206
3 *553:A *615:A2 0.000116853
4 *553:A *615:B1 0.000138968
5 *553:A *671:D 1.37135e-05
6 *553:A *708:A 0.000281126
7 *549:B *553:A 2.49909e-05
8 *96:8 *553:A 6.61442e-05
*RES
1 *552:X *553:A 14.625 
*END

*D_NET *100 0.00266246
*CONN
*I *613:A1 I *D sky130_fd_sc_hd__a21o_1
*I *554:B I *D sky130_fd_sc_hd__nor2_1
*I *614:A2 I *D sky130_fd_sc_hd__o21ai_1
*I *553:Y O *D sky130_fd_sc_hd__inv_2
*CAP
1 *613:A1 0
2 *554:B 0.000160505
3 *614:A2 0.000159887
4 *553:Y 0.000335763
5 *100:25 0.000242365
6 *100:10 0.000577509
7 *554:B *669:D 2.75145e-05
8 *546:A *100:10 7.30479e-05
9 *554:A *554:B 0.000134704
10 *607:A *100:10 9.4087e-05
11 *613:B1 *554:B 0.00011671
12 *613:B1 *614:A2 9.76522e-05
13 *613:B1 *100:10 1.52184e-05
14 *613:B1 *100:25 0.000120655
15 *614:A1 *614:A2 0.000278123
16 *614:A1 *100:10 6.45236e-05
17 *614:B1 *614:A2 7.00889e-06
18 *47:10 *614:A2 3.86607e-05
19 *93:8 *100:10 0.000118527
*RES
1 *553:Y *100:10 8.955 
2 *100:10 *614:A2 7.305 
3 *100:10 *100:25 3.14 
4 *100:25 *554:B 4.495 
5 *100:25 *613:A1 1.6 
*END

*D_NET *101 0.00388363
*CONN
*I *556:A I *D sky130_fd_sc_hd__inv_2
*I *609:B I *D sky130_fd_sc_hd__nor2_1
*I *559:B1 I *D sky130_fd_sc_hd__o21a_1
*I *555:Y O *D sky130_fd_sc_hd__nand2_1
*CAP
1 *556:A 0
2 *609:B 8.3685e-05
3 *559:B1 0.000222646
4 *555:Y 0
5 *101:33 0.00075381
6 *101:6 0.00089277
7 *559:B1 *602:A1 0.000195004
8 *559:B1 *112:18 7.9642e-06
9 *559:B1 *146:72 4.08688e-05
10 *559:B1 *146:78 1.23192e-05
11 *609:B *557:B 2.58336e-05
12 *609:B *570:B 0.000236493
13 *609:B *572:A 4.89295e-05
14 *101:33 *542:A 2.50751e-05
15 *101:33 *571:A 0.000119052
16 *101:33 *571:B 9.95896e-06
17 *101:33 *572:A 4.77719e-05
18 *101:33 *600:B 0.000194921
19 *101:33 *624:C 1.14192e-05
20 *101:33 *115:16 3.07118e-05
21 *101:33 *116:8 3.0933e-05
22 *101:33 *117:14 9.05146e-05
23 *590:B1 *559:B1 0.000267086
24 *590:B1 *101:33 0.000114518
25 *625:A *609:B 0.000235339
26 *625:A *101:33 3.75126e-05
27 *625:B *101:33 0.000118827
28 *90:10 *559:B1 4.59022e-06
29 *90:20 *559:B1 2.50751e-05
*RES
1 *555:Y *101:6 3.6 
2 *101:6 *559:B1 9.315 
3 *101:6 *101:33 16.845 
4 *101:33 *609:B 4.81 
5 *101:33 *556:A 1.6 
*END

*D_NET *102 0.00180895
*CONN
*I *572:A I *D sky130_fd_sc_hd__nand2_1
*I *557:B I *D sky130_fd_sc_hd__nor2_1
*I *556:Y O *D sky130_fd_sc_hd__inv_2
*CAP
1 *572:A 0.000146469
2 *557:B 0.00044344
3 *556:Y 0
4 *102:4 0.000589909
5 *557:B *570:A 6.90384e-05
6 *557:B *570:B 0.000114852
7 *572:A *117:14 1.19928e-05
8 *569:A *557:B 7.50972e-05
9 *569:B *557:B 8.12632e-05
10 *609:B *557:B 2.58336e-05
11 *609:B *572:A 4.89295e-05
12 *625:A *572:A 6.94356e-05
13 *626:C *572:A 8.49205e-05
14 *88:48 *557:B 0
15 *101:33 *572:A 4.77719e-05
*RES
1 *556:Y *102:4 1.6 
2 *102:4 *557:B 12.785 
3 *102:4 *572:A 4.75 
*END

*D_NET *103 0.00126555
*CONN
*I *590:A3 I *D sky130_fd_sc_hd__o311a_1
*I *559:A2 I *D sky130_fd_sc_hd__o21a_1
*I *598:A I *D sky130_fd_sc_hd__nand2_1
*I *558:Y O *D sky130_fd_sc_hd__inv_2
*CAP
1 *590:A3 4.62228e-05
2 *559:A2 8.53721e-05
3 *598:A 6.51838e-05
4 *558:Y 0
5 *103:17 0.000256782
6 *103:4 0.000190371
7 *559:A2 *599:B 0.000122331
8 *590:A3 *146:72 4.33239e-05
9 *598:A *601:C 0.000174409
10 *103:17 *590:A2 0
11 *103:17 *112:18 1.00941e-05
12 *103:17 *146:72 2.76109e-05
13 *103:17 *146:78 1.27474e-05
14 *599:A *598:A 7.60965e-05
15 *599:A *103:17 0.000115254
16 *602:B1 *590:A3 3.54721e-05
17 *602:B1 *103:17 4.28112e-06
*RES
1 *558:Y *103:4 1.6 
2 *103:4 *598:A 3.7 
3 *103:4 *103:17 4.145 
4 *103:17 *559:A2 4.74 
5 *103:17 *590:A3 4.725 
*END

*D_NET *104 0.00100627
*CONN
*I *566:A I *D sky130_fd_sc_hd__nand2_1
*I *559:X O *D sky130_fd_sc_hd__o21a_1
*CAP
1 *566:A 0.000342844
2 *559:X 0.000342844
3 *566:A *541:A 2.86967e-05
4 *566:A *563:A 3.48139e-06
5 *566:A *568:A 0.000182981
6 *566:A *571:A 9.5799e-06
7 *566:A *602:A1 1.88602e-05
8 *602:C1 *566:A 3.79555e-05
9 *26:10 *566:A 3.90287e-05
*RES
1 *559:X *566:A 10.8096 
*END

*D_NET *105 0.00301329
*CONN
*I *623:B I *D sky130_fd_sc_hd__nand2_1
*I *608:B1 I *D sky130_fd_sc_hd__a21oi_1
*I *601:B I *D sky130_fd_sc_hd__nand3_1
*I *562:A I *D sky130_fd_sc_hd__nand2_1
*I *560:Y O *D sky130_fd_sc_hd__inv_2
*CAP
1 *623:B 0
2 *608:B1 3.27408e-05
3 *601:B 8.88775e-05
4 *562:A 2.08101e-05
5 *560:Y 6.42295e-05
6 *105:36 0.000453797
7 *105:14 0.000420418
8 *105:8 0.000796017
9 *562:A *565:A 0
10 *562:A *601:C 0
11 *601:B *565:A 8.43862e-05
12 *608:B1 *144:50 2.86975e-05
13 *105:8 *144:15 4.77719e-05
14 *105:8 *144:93 4.66108e-05
15 *105:14 *562:B 8.8266e-05
16 *105:14 *565:A 3.00381e-05
17 *105:14 *566:B 0
18 *105:14 *144:23 2.84864e-05
19 *105:36 *623:A 2.84514e-05
20 *105:36 *116:8 2.01504e-05
21 *105:36 *118:6 0.000233568
22 *105:36 *144:23 9.49696e-05
23 *597:A *105:14 7.2208e-05
24 *606:B *608:B1 4.77719e-05
25 *606:B *105:14 8.33066e-06
26 *606:B *105:36 0.000179704
27 *625:A *608:B1 5.83121e-06
28 *625:A *105:36 3.91427e-06
29 *673:RESET_B *105:14 0
30 *26:10 *105:14 0
31 *90:38 *105:14 8.72419e-05
*RES
1 *560:Y *105:8 4.395 
2 *105:8 *105:14 7.925 
3 *105:14 *562:A 1.96 
4 *105:14 *601:B 3.085 
5 *105:8 *105:36 8.99 
6 *105:36 *608:B1 2.395 
7 *105:36 *623:B 1.6 
*END

*D_NET *106 0.000407621
*CONN
*I *562:B I *D sky130_fd_sc_hd__nand2_1
*I *561:Y O *D sky130_fd_sc_hd__inv_2
*CAP
1 *562:B 0.000159677
2 *561:Y 0.000159677
3 *673:RESET_B *562:B 0
4 *105:14 *562:B 8.8266e-05
*RES
1 *561:Y *562:B 9.975 
*END

*D_NET *107 0.000578685
*CONN
*I *565:A I *D sky130_fd_sc_hd__nand3_1
*I *562:Y O *D sky130_fd_sc_hd__nand2_1
*CAP
1 *565:A 0.000122106
2 *562:Y 0.000122106
3 *565:A *566:B 0.000198939
4 *565:A *601:C 2.11084e-05
5 *562:A *565:A 0
6 *601:B *565:A 8.43862e-05
7 *105:14 *565:A 3.00381e-05
*RES
1 *562:Y *565:A 6.425 
*END

*D_NET *108 0.00114426
*CONN
*I *599:B I *D sky130_fd_sc_hd__nand3_1
*I *565:B I *D sky130_fd_sc_hd__nand3_1
*I *563:Y O *D sky130_fd_sc_hd__nor2_1
*CAP
1 *599:B 0.000227
2 *565:B 0.000113973
3 *563:Y 3.06246e-05
4 *108:6 0.000371597
5 *565:B *568:A 3.97171e-05
6 *565:B *112:18 0
7 *565:B *146:78 0
8 *599:B *568:A 1.91597e-05
9 *599:B *568:B 5.05437e-05
10 *599:B *146:78 5.95927e-05
11 *108:6 *568:A 5.83121e-06
12 *108:6 *146:78 1.17309e-05
13 *559:A2 *599:B 0.000122331
14 *563:B *565:B 5.10477e-05
15 *602:C1 *565:B 4.11112e-05
16 *26:10 *565:B 0
*RES
1 *563:Y *108:6 2.05 
2 *108:6 *565:B 7.745 
3 *108:6 *599:B 5.77 
*END

*D_NET *109 0.0011675
*CONN
*I *598:B I *D sky130_fd_sc_hd__nand2_1
*I *565:C I *D sky130_fd_sc_hd__nand3_1
*I *564:Y O *D sky130_fd_sc_hd__inv_2
*CAP
1 *598:B 0
2 *565:C 3.73572e-05
3 *564:Y 0.000434667
4 *109:12 0.000472024
5 *565:C *601:C 5.05437e-05
6 *109:12 *171:12 0.000163204
7 *666:D *109:12 0
8 *682:RESET_B *109:12 9.70252e-06
9 *26:10 *109:12 0
*RES
1 *564:Y *109:12 11.135 
2 *109:12 *565:C 2.395 
3 *109:12 *598:B 1.6 
*END

*D_NET *110 0.000869546
*CONN
*I *566:B I *D sky130_fd_sc_hd__nand2_1
*I *565:Y O *D sky130_fd_sc_hd__nand3_1
*CAP
1 *566:B 0.000233419
2 *565:Y 0.000233419
3 *565:A *566:B 0.000198939
4 *666:D *566:B 5.16418e-05
5 *26:10 *566:B 0.000152127
6 *105:14 *566:B 0
*RES
1 *565:Y *566:B 11.43 
*END

*D_NET *111 0.000857337
*CONN
*I *568:A I *D sky130_fd_sc_hd__nand2_1
*I *566:Y O *D sky130_fd_sc_hd__nand2_1
*CAP
1 *568:A 0.000235455
2 *566:Y 0.000235455
3 *568:A *541:A 2.8585e-06
4 *568:A *563:A 1.07839e-05
5 *568:A *602:A1 1.04253e-05
6 *568:A *112:18 2.97004e-06
7 *568:A *146:78 3.11028e-05
8 *563:B *568:A 3.91137e-05
9 *565:B *568:A 3.97171e-05
10 *566:A *568:A 0.000182981
11 *599:B *568:A 1.91597e-05
12 *602:C1 *568:A 4.14843e-05
13 *108:6 *568:A 5.83121e-06
*RES
1 *566:Y *568:A 11.0903 
*END

*D_NET *112 0.00147534
*CONN
*I *599:C I *D sky130_fd_sc_hd__nand3_1
*I *602:A1 I *D sky130_fd_sc_hd__o211ai_2
*I *568:B I *D sky130_fd_sc_hd__nand2_1
*I *567:Y O *D sky130_fd_sc_hd__inv_2
*CAP
1 *599:C 0
2 *602:A1 0.000118333
3 *568:B 1.72691e-05
4 *567:Y 5.31467e-05
5 *112:18 0.000466611
6 *112:6 0.000384156
7 *568:B *146:78 5.30673e-05
8 *602:A1 *571:A 3.66352e-05
9 *602:A1 *144:93 4.66108e-05
10 *559:B1 *602:A1 0.000195004
11 *559:B1 *112:18 7.9642e-06
12 *565:B *112:18 0
13 *566:A *602:A1 1.88602e-05
14 *568:A *602:A1 1.04253e-05
15 *568:A *112:18 2.97004e-06
16 *599:B *568:B 5.05437e-05
17 *602:B1 *112:6 3.64998e-06
18 *103:17 *112:18 1.00941e-05
*RES
1 *567:Y *112:6 2.395 
2 *112:6 *112:18 3.96913 
3 *112:18 *568:B 4.395 
4 *112:18 *602:A1 6.45 
5 *112:6 *599:C 1.6 
*END

*D_NET *113 0.00147163
*CONN
*I *571:A I *D sky130_fd_sc_hd__nand2_1
*I *568:Y O *D sky130_fd_sc_hd__nand2_1
*CAP
1 *571:A 0.000412453
2 *568:Y 0.000412453
3 *571:A *600:B 2.49909e-05
4 *571:A *685:A 0.00017765
5 *571:A *116:8 0
6 *563:B *571:A 3.0688e-05
7 *566:A *571:A 9.5799e-06
8 *602:A1 *571:A 3.66352e-05
9 *602:B1 *571:A 7.03276e-05
10 *26:10 *571:A 0.000110483
11 *44:10 *571:A 6.73186e-05
12 *101:33 *571:A 0.000119052
*RES
1 *568:Y *571:A 16.23 
*END

*D_NET *114 0.00166561
*CONN
*I *615:B1 I *D sky130_fd_sc_hd__o211a_1
*I *570:A I *D sky130_fd_sc_hd__nand2_1
*I *569:Y O *D sky130_fd_sc_hd__nor2_1
*CAP
1 *615:B1 0.000315749
2 *570:A 0.000171122
3 *569:Y 3.85373e-05
4 *114:8 0.000525408
5 *570:A *570:B 2.97004e-06
6 *570:A *610:B 2.68526e-05
7 *570:A *708:A 4.1652e-06
8 *615:B1 *615:A2 3.01547e-05
9 *615:B1 *708:A 6.08906e-05
10 *546:A *615:B1 4.77757e-05
11 *553:A *615:B1 0.000138968
12 *557:B *570:A 6.90384e-05
13 *569:A *570:A 7.98745e-06
14 *569:A *114:8 9.76407e-06
15 *569:B *114:8 4.6771e-06
16 *611:A *570:A 2.86975e-05
17 *87:16 *615:B1 0.00018285
*RES
1 *569:Y *114:8 4.05 
2 *114:8 *570:A 6.705 
3 *114:8 *615:B1 9.645 
*END

*D_NET *115 0.00198805
*CONN
*I *596:A I *D sky130_fd_sc_hd__inv_2
*I *589:A1 I *D sky130_fd_sc_hd__o21ai_1
*I *571:B I *D sky130_fd_sc_hd__nand2_1
*I *570:Y O *D sky130_fd_sc_hd__nand2_1
*CAP
1 *596:A 0
2 *589:A1 0.000175404
3 *571:B 8.76827e-05
4 *570:Y 8.02637e-05
5 *115:16 0.000487695
6 *115:8 0.000304872
7 *571:B *572:B 0
8 *571:B *117:14 0.000109743
9 *571:B *146:16 0
10 *589:A1 *572:B 0.000199021
11 *589:A1 *146:14 1.08758e-05
12 *115:8 *610:B 0.000322361
13 *115:16 *589:A2 0
14 *603:A2 *115:8 3.70488e-05
15 *603:B1 *115:16 0
16 *611:A *115:8 0.000103747
17 *626:C *589:A1 2.86691e-05
18 *626:C *115:16 0
19 *101:33 *571:B 9.95896e-06
20 *101:33 *115:16 3.07118e-05
*RES
1 *570:Y *115:8 4.825 
2 *115:8 *115:16 5.21 
3 *115:16 *571:B 5.235 
4 *115:16 *589:A1 6.93 
5 *115:8 *596:A 1.6 
*END

*D_NET *116 0.000444653
*CONN
*I *573:A I *D sky130_fd_sc_hd__nand2_1
*I *624:A I *D sky130_fd_sc_hd__nand3_1
*I *571:Y O *D sky130_fd_sc_hd__nand2_1
*CAP
1 *573:A 0
2 *624:A 7.57851e-06
3 *571:Y 8.3696e-05
4 *116:8 9.12745e-05
5 *624:A *624:C 4.89295e-05
6 *624:A *118:6 2.20014e-05
7 *116:8 *623:A 0
8 *116:8 *624:C 4.22205e-05
9 *116:8 *117:14 4.89395e-05
10 *116:8 *118:6 4.89295e-05
11 *571:A *116:8 0
12 *101:33 *116:8 3.0933e-05
13 *105:36 *116:8 2.01504e-05
*RES
1 *571:Y *116:8 3.79 
2 *116:8 *624:A 2.05 
3 *116:8 *573:A 1.6 
*END

*D_NET *117 0.000947904
*CONN
*I *624:C I *D sky130_fd_sc_hd__nand3_1
*I *573:B I *D sky130_fd_sc_hd__nand2_1
*I *572:Y O *D sky130_fd_sc_hd__nand2_1
*CAP
1 *624:C 0.000109293
2 *573:B 0
3 *572:Y 0.000112883
4 *117:14 0.000222176
5 *624:C *118:6 4.24744e-05
6 *571:B *117:14 0.000109743
7 *572:A *117:14 1.19928e-05
8 *624:A *624:C 4.89295e-05
9 *625:A *117:14 1.08758e-05
10 *625:B *624:C 8.64421e-05
11 *101:33 *624:C 1.14192e-05
12 *101:33 *117:14 9.05146e-05
13 *116:8 *624:C 4.22205e-05
14 *116:8 *117:14 4.89395e-05
*RES
1 *572:Y *117:14 7.88 
2 *117:14 *573:B 1.6 
3 *117:14 *624:C 4.135 
*END

*D_NET *118 0.00124348
*CONN
*I *623:A I *D sky130_fd_sc_hd__nand2_1
*I *574:A I *D sky130_fd_sc_hd__inv_2
*I *573:Y O *D sky130_fd_sc_hd__nand2_1
*CAP
1 *623:A 2.7316e-05
2 *574:A 0.000251134
3 *573:Y 5.84774e-05
4 *118:6 0.000336927
5 *574:A *605:A1 2.75092e-05
6 *574:A *624:B 3.11771e-05
7 *574:A *144:23 1.75023e-05
8 *574:A *144:29 4.7003e-05
9 *574:A *144:50 5.67508e-05
10 *606:B *574:A 1.42598e-05
11 *624:A *118:6 2.20014e-05
12 *624:C *118:6 4.24744e-05
13 *105:36 *623:A 2.84514e-05
14 *105:36 *118:6 0.000233568
15 *116:8 *623:A 0
16 *116:8 *118:6 4.89295e-05
*RES
1 *573:Y *118:6 3.775 
2 *118:6 *574:A 10.01 
3 *118:6 *623:A 2.215 
*END

*D_NET *119 0.0025075
*CONN
*I *576:B1_N I *D sky130_fd_sc_hd__o21bai_1
*I *617:A2 I *D sky130_fd_sc_hd__a211oi_1
*I *575:Y O *D sky130_fd_sc_hd__nand2_1
*CAP
1 *576:B1_N 1.85694e-05
2 *617:A2 2.75319e-05
3 *575:Y 0.000998769
4 *119:12 0.00104487
5 *576:B1_N *616:B 0
6 *119:12 *577:A 0.000111285
7 *119:12 *583:A 0.000160641
8 *576:A2 *576:B1_N 9.53428e-06
9 *576:A2 *617:A2 2.75145e-05
10 *576:A2 *119:12 0.00010878
*RES
1 *575:Y *119:12 20.63 
2 *119:12 *617:A2 2.05 
3 *119:12 *576:B1_N 1.96 
*END

*D_NET *120 0.000380823
*CONN
*I *577:A I *D sky130_fd_sc_hd__nand2_1
*I *576:Y O *D sky130_fd_sc_hd__o21bai_1
*CAP
1 *577:A 0.000126232
2 *576:Y 0.000126232
3 *576:A2 *577:A 1.70733e-05
4 *119:12 *577:A 0.000111285
*RES
1 *576:Y *577:A 5.75 
*END

*D_NET *121 0.00059921
*CONN
*I *583:A I *D sky130_fd_sc_hd__nand2_1
*I *577:Y O *D sky130_fd_sc_hd__nand2_1
*CAP
1 *583:A 0.000170683
2 *577:Y 0.000170683
3 *583:A *582:B 0
4 *583:A *129:12 5.14033e-05
5 *545:A *583:A 1.92979e-05
6 *594:A *583:A 2.6502e-05
7 *119:12 *583:A 0.000160641
*RES
1 *577:Y *583:A 10.065 
*END

*D_NET *122 0.00200534
*CONN
*I *638:A I *D sky130_fd_sc_hd__or2_1
*I *579:B I *D sky130_fd_sc_hd__nor2_1
*I *578:Y O *D sky130_fd_sc_hd__nand2_1
*CAP
1 *638:A 7.24867e-05
2 *579:B 0.000555739
3 *578:Y 0.000101248
4 *122:10 0.000729473
5 *579:B *550:A 1.0145e-05
6 *579:B *578:A 2.41572e-05
7 *579:B *123:8 4.66108e-05
8 *579:B *176:16 5.79232e-05
9 *122:10 *578:A 1.18814e-05
10 *122:10 *175:41 0.000163204
11 *579:A *579:B 1.16578e-05
12 *59:14 *579:B 1.7635e-05
13 *59:26 *638:A 0
14 *63:8 *638:A 0
15 *82:10 *122:10 0.000203178
16 *98:20 *122:10 0
*RES
1 *578:Y *122:10 6.4275 
2 *122:10 *579:B 7.0847 
3 *122:10 *638:A 4.5975 
*END

*D_NET *123 0.00325767
*CONN
*I *642:C I *D sky130_fd_sc_hd__nand3_1
*I *580:B I *D sky130_fd_sc_hd__nor2_1
*I *579:Y O *D sky130_fd_sc_hd__nor2_1
*CAP
1 *642:C 0.000479728
2 *580:B 0.000184533
3 *579:Y 3.69588e-05
4 *123:8 0.00070122
5 *580:B *143:16 4.43871e-06
6 *642:C *537:B 0.000196699
7 *536:A *580:B 0.000361853
8 *536:B *580:B 0.000196381
9 *579:B *123:8 4.66108e-05
10 *639:A *642:C 7.08331e-05
11 *648:B_N *642:C 0.000131525
12 *17:130 *580:B 8.57321e-05
13 *59:14 *580:B 0.000244935
14 *59:14 *642:C 0.000319444
15 *74:14 *642:C 6.29421e-05
16 *74:25 *642:C 5.83121e-06
17 *98:20 *580:B 9.72152e-05
18 *98:20 *642:C 3.07854e-05
*RES
1 *579:Y *123:8 4.05 
2 *123:8 *580:B 9.72 
3 *123:8 *642:C 13.185 
*END

*D_NET *124 0.00171241
*CONN
*I *617:C1 I *D sky130_fd_sc_hd__a211oi_1
*I *593:A I *D sky130_fd_sc_hd__nand2_1
*I *582:A I *D sky130_fd_sc_hd__nand3_1
*I *580:Y O *D sky130_fd_sc_hd__nor2_1
*CAP
1 *617:C1 0
2 *593:A 0
3 *582:A 0.00010918
4 *580:Y 0.000231259
5 *124:16 0.000246039
6 *124:10 0.000368118
7 *582:A *583:B 7.00889e-06
8 *124:10 *582:B 0
9 *124:10 *616:B 9.7872e-05
10 *124:10 *707:A 0.000287337
11 *124:16 *582:B 0
12 *536:B *124:10 0.000122331
13 *544:B *582:A 4.11713e-05
14 *545:A *124:16 1.93765e-05
15 *594:A *582:A 4.43682e-05
16 *616:A *124:16 4.43044e-05
17 *617:A1 *124:16 6.28843e-05
18 *17:130 *124:10 8.53113e-06
19 *59:14 *124:10 0
20 *59:14 *124:16 0
21 *87:16 *124:10 0
22 *89:16 *124:16 5.53249e-06
23 *90:108 *124:16 1.70935e-05
*RES
1 *580:Y *124:10 8.415 
2 *124:10 *124:16 4.34 
3 *124:16 *582:A 3.805 
4 *124:16 *593:A 1.6 
5 *124:10 *617:C1 3.6 
*END

*D_NET *125 0.00256727
*CONN
*I *585:A I *D sky130_fd_sc_hd__nor2_1
*I *616:B I *D sky130_fd_sc_hd__nand2_1
*I *582:B I *D sky130_fd_sc_hd__nand3_1
*I *581:Y O *D sky130_fd_sc_hd__inv_2
*CAP
1 *585:A 0
2 *616:B 0.000209839
3 *582:B 0.000223256
4 *581:Y 0.000168116
5 *125:8 0.000601211
6 *582:B *583:B 2.75229e-05
7 *582:B *129:12 0
8 *616:B *707:A 5.4155e-06
9 *616:B *143:16 0.000132415
10 *616:B *143:80 1.33285e-05
11 *125:8 *129:12 4.16262e-05
12 *125:8 *143:6 9.53428e-06
13 *125:8 *143:80 0.000392136
14 *540:B *616:B 4.66108e-05
15 *540:B *125:8 4.03631e-05
16 *576:A1 *582:B 0
17 *576:A2 *582:B 0.000160658
18 *576:B1_N *616:B 0
19 *582:C *582:B 7.9642e-06
20 *583:A *582:B 0
21 *585:B *582:B 7.30547e-05
22 *585:B *125:8 4.82919e-05
23 *594:A *582:B 5.84775e-05
24 *616:A *582:B 3.18735e-05
25 *616:A *616:B 7.34961e-06
26 *617:B1 *616:B 9.53428e-06
27 *59:14 *616:B 0
28 *86:12 *582:B 2.92496e-05
29 *87:16 *616:B 0.000131572
30 *124:10 *582:B 0
31 *124:10 *616:B 9.7872e-05
32 *124:16 *582:B 0
*RES
1 *581:Y *125:8 6.205 
2 *125:8 *582:B 9.98 
3 *125:8 *616:B 10.6625 
4 *125:8 *585:A 1.6 
*END

*D_NET *126 0.000418345
*CONN
*I *583:B I *D sky130_fd_sc_hd__nand2_1
*I *582:Y O *D sky130_fd_sc_hd__nand3_1
*CAP
1 *583:B 0.00014154
2 *582:Y 0.00014154
3 *583:B *127:10 2.94296e-05
4 *582:A *583:B 7.00889e-06
5 *582:B *583:B 2.75229e-05
6 *582:C *583:B 8.41015e-06
7 *594:A *583:B 3.62082e-05
8 *89:16 *583:B 2.66861e-05
*RES
1 *582:Y *583:B 9.765 
*END

*D_NET *127 0.00159347
*CONN
*I *595:B I *D sky130_fd_sc_hd__nor2_1
*I *591:A I *D sky130_fd_sc_hd__or3_1
*I *583:Y O *D sky130_fd_sc_hd__nand2_1
*CAP
1 *595:B 0
2 *591:A 0.000249815
3 *583:Y 0.000143628
4 *127:10 0.000393443
5 *591:A *589:B1 0.000156774
6 *591:A *592:A 0.000137571
7 *591:A *129:12 0
8 *591:A *146:10 6.23512e-05
9 *127:10 *129:12 0
10 *583:B *127:10 2.94296e-05
11 *594:A *127:10 0.000116158
12 *604:A *591:A 4.28112e-06
13 *621:C *591:A 4.77807e-05
14 *626:A *591:A 0.000116853
15 *38:10 *591:A 9.36361e-05
16 *45:10 *591:A 3.47421e-05
17 *89:16 *591:A 0
18 *89:16 *127:10 0
19 *92:14 *127:10 7.00889e-06
*RES
1 *583:Y *127:10 6.03 
2 *127:10 *591:A 9.825 
3 *127:10 *595:B 3.6 
*END

*D_NET *128 0.00194223
*CONN
*I *603:A1 I *D sky130_fd_sc_hd__a21oi_1
*I *589:A2 I *D sky130_fd_sc_hd__o21ai_1
*I *584:Y O *D sky130_fd_sc_hd__a21oi_1
*CAP
1 *603:A1 5.74818e-05
2 *589:A2 0.000314961
3 *584:Y 0.000426475
4 *128:8 0.000798918
5 *589:A2 *685:A 0
6 *589:A2 *146:14 2.19562e-06
7 *603:A1 *610:B 8.65905e-05
8 *128:8 *685:A 0
9 *128:8 *686:A 0
10 *622:A *589:A2 2.65814e-06
11 *626:C *589:A2 0.000201503
12 *684:A *128:8 5.14424e-05
13 *115:16 *589:A2 0
*RES
1 *584:Y *128:8 10.59 
2 *128:8 *589:A2 7.92 
3 *128:8 *603:A1 4.395 
*END

*D_NET *129 0.00135183
*CONN
*I *588:A I *D sky130_fd_sc_hd__nand2_1
*I *594:B I *D sky130_fd_sc_hd__nor2_1
*I *585:Y O *D sky130_fd_sc_hd__nor2_1
*CAP
1 *588:A 2.00398e-05
2 *594:B 0
3 *585:Y 0.000415508
4 *129:12 0.000435548
5 *588:A *588:B 5.05521e-05
6 *588:A *589:B1 5.05521e-05
7 *540:B *129:12 4.99619e-05
8 *545:A *129:12 1.92979e-05
9 *576:A1 *129:12 0.000162325
10 *577:B *129:12 0
11 *582:B *129:12 0
12 *583:A *129:12 5.14033e-05
13 *591:A *129:12 0
14 *594:A *129:12 0
15 *87:6 *129:12 4.99619e-05
16 *92:14 *129:12 5.05066e-06
17 *125:8 *129:12 4.16262e-05
18 *127:10 *129:12 0
*RES
1 *585:Y *129:12 13.055 
2 *129:12 *594:B 1.6 
3 *129:12 *588:A 2.395 
*END

*D_NET *130 0.00181428
*CONN
*I *587:B I *D sky130_fd_sc_hd__and2_1
*I *600:B I *D sky130_fd_sc_hd__nor2_1
*I *586:Y O *D sky130_fd_sc_hd__inv_2
*CAP
1 *587:B 0.000345189
2 *600:B 0.000158472
3 *586:Y 0
4 *130:4 0.000503661
5 *587:B *555:B 1.91597e-05
6 *587:B *591:C 3.98029e-05
7 *587:B *592:A 2.34423e-05
8 *587:B *145:23 7.26704e-05
9 *600:B *542:A 4.77807e-05
10 *600:B *555:B 8.41384e-05
11 *600:B *144:103 2.15454e-05
12 *571:A *600:B 2.49909e-05
13 *604:B *587:B 9.05592e-05
14 *45:10 *587:B 0.000172726
15 *89:16 *587:B 1.52184e-05
16 *90:87 *587:B 0
17 *101:33 *600:B 0.000194921
*RES
1 *586:Y *130:4 1.6 
2 *130:4 *600:B 5.185 
3 *130:4 *587:B 11.45 
*END

*D_NET *131 0.00515113
*CONN
*I *593:B I *D sky130_fd_sc_hd__nand2_1
*I *588:B I *D sky130_fd_sc_hd__nand2_1
*I *610:B I *D sky130_fd_sc_hd__nor2_1
*I *587:X O *D sky130_fd_sc_hd__and2_1
*CAP
1 *593:B 7.87606e-05
2 *588:B 0.000464511
3 *610:B 0.000913093
4 *587:X 0.00020138
5 *131:25 0.000639386
6 *131:8 0.00121059
7 *588:B *141:8 2.50702e-05
8 *131:8 *592:A 1.08758e-05
9 *569:A *588:B 1.56428e-05
10 *570:A *610:B 2.68526e-05
11 *588:A *588:B 5.05521e-05
12 *594:A *588:B 8.65961e-05
13 *595:A *588:B 1.61831e-05
14 *603:A1 *610:B 8.65905e-05
15 *603:A2 *610:B 1.68183e-05
16 *603:B1 *610:B 0.000136276
17 *611:A *610:B 0.00011036
18 *626:A *131:8 0.000219182
19 *45:10 *610:B 6.89033e-05
20 *48:8 *610:B 4.00541e-06
21 *59:14 *593:B 0
22 *59:14 *131:25 0
23 *89:12 *610:B 6.97118e-05
24 *89:12 *131:8 3.51884e-05
25 *90:87 *131:25 0.000114492
26 *90:108 *593:B 0.000160863
27 *90:108 *131:25 6.68849e-05
28 *115:8 *610:B 0.000322361
*RES
1 *587:X *131:8 5.17 
2 *131:8 *610:B 15.55 
3 *131:8 *131:25 4.145 
4 *131:25 *588:B 10.635 
5 *131:25 *593:B 5.49 
*END

*D_NET *132 0.00202571
*CONN
*I *589:B1 I *D sky130_fd_sc_hd__o21ai_1
*I *588:Y O *D sky130_fd_sc_hd__nand2_1
*CAP
1 *589:B1 0.000469723
2 *588:Y 0.000469723
3 *589:B1 *591:B 0.000389572
4 *589:B1 *592:A 2.75229e-05
5 *589:B1 *146:8 4.76437e-05
6 *589:B1 *146:10 7.16132e-05
7 *589:B1 *146:14 3.94628e-05
8 *588:A *589:B1 5.05521e-05
9 *591:A *589:B1 0.000156774
10 *622:A *589:B1 0.000112408
11 *626:A *589:B1 2.75229e-05
12 *38:10 *589:B1 0.000163193
*RES
1 *588:Y *589:B1 18.42 
*END

*D_NET *133 0.000892966
*CONN
*I *591:B I *D sky130_fd_sc_hd__or3_1
*I *589:Y O *D sky130_fd_sc_hd__o21ai_1
*CAP
1 *591:B 0.000200959
2 *589:Y 0.000200959
3 *589:B1 *591:B 0.000389572
4 *622:A *591:B 1.32102e-05
5 *626:B *591:B 8.8266e-05
*RES
1 *589:Y *591:B 7.46 
*END

*D_NET *134 0.00113107
*CONN
*I *591:C I *D sky130_fd_sc_hd__or3_1
*I *590:X O *D sky130_fd_sc_hd__o311a_1
*CAP
1 *591:C 0.000273352
2 *590:X 0.000273352
3 *591:C *590:A2 2.38055e-05
4 *591:C *144:93 2.01737e-05
5 *591:C *144:103 0.00026231
6 *591:C *146:72 0.000220797
7 *587:B *591:C 3.98029e-05
8 *90:87 *591:C 1.74776e-05
*RES
1 *590:X *591:C 13.8 
*END

*D_NET *135 0.000676429
*CONN
*I *592:A I *D sky130_fd_sc_hd__clkbuf_1
*I *591:X O *D sky130_fd_sc_hd__or3_1
*CAP
1 *592:A 0.000150449
2 *591:X 0.000150449
3 *587:B *592:A 2.34423e-05
4 *589:B1 *592:A 2.75229e-05
5 *591:A *592:A 0.000137571
6 *626:A *592:A 8.23457e-05
7 *45:10 *592:A 9.37731e-05
8 *131:8 *592:A 1.08758e-05
*RES
1 *591:X *592:A 10.425 
*END

*D_NET *136 0.00669622
*CONN
*I *671:D I *D sky130_fd_sc_hd__dfrtp_1
*I *608:Y O *D sky130_fd_sc_hd__a21oi_1
*CAP
1 *671:D 0.00260583
2 *608:Y 0.00260583
3 *671:D *615:A2 0.000191486
4 *671:D *671:CLK 0.000167973
5 *671:D *695:A 6.85995e-06
6 *671:D *707:A 1.08758e-05
7 *671:D *146:33 0.000143849
8 *671:D *173:43 0.00019874
9 *671:D *174:14 0.000274933
10 *671:D *175:8 0
11 *671:D *175:34 0
12 *553:A *671:D 1.37135e-05
13 *606:B *671:D 8.35106e-05
14 *608:A2 *671:D 1.7635e-05
15 *636:A *671:D 0.000232543
16 *659:D *671:D 7.23602e-05
17 *17:80 *671:D 5.51869e-05
18 *92:18 *671:D 1.48965e-05
*RES
1 *608:Y *671:D 32.568 
*END

*D_NET *137 0.00079585
*CONN
*I *672:D I *D sky130_fd_sc_hd__dfrtp_1
*I *612:X O *D sky130_fd_sc_hd__clkbuf_1
*CAP
1 *672:D 0.00022704
2 *612:X 0.00022704
3 *672:D *658:CLK 0.000214222
4 *672:D *703:A 9.30787e-05
5 *612:A *672:D 3.44698e-05
*RES
1 *612:X *672:D 10.845 
*END

*D_NET *138 0.000699086
*CONN
*I *669:D I *D sky130_fd_sc_hd__dfrtp_1
*I *554:Y O *D sky130_fd_sc_hd__nor2_1
*CAP
1 *669:D 0.000236541
2 *554:Y 0.000236541
3 *669:D *670:D 9.5433e-05
4 *554:A *669:D 1.61831e-05
5 *554:B *669:D 2.75145e-05
6 *668:D *669:D 8.68724e-05
7 *17:154 *669:D 0
8 *17:156 *669:D 0
*RES
1 *554:Y *669:D 11.4 
*END

*D_NET *139 0.00024339
*CONN
*I *670:D I *D sky130_fd_sc_hd__dfrtp_1
*I *613:X O *D sky130_fd_sc_hd__a21o_1
*CAP
1 *670:D 2.54252e-05
2 *613:X 2.54252e-05
3 *668:D *670:D 9.71067e-05
4 *669:D *670:D 9.5433e-05
*RES
1 *613:X *670:D 8.325 
*END

*D_NET *140 0.00174822
*CONN
*I *667:D I *D sky130_fd_sc_hd__dfrtp_1
*I *614:Y O *D sky130_fd_sc_hd__o21ai_1
*CAP
1 *667:D 0.000593512
2 *614:Y 0.000593512
3 *667:D *667:CLK 8.65905e-05
4 *667:D *669:CLK 0.000272084
5 *667:D *142:76 1.52184e-05
6 *667:D *142:87 0.000187306
*RES
1 *614:Y *667:D 19.515 
*END

*D_NET *141 0.00388031
*CONN
*I *686:A I *D sky130_fd_sc_hd__clkbuf_16
*I *685:A I *D sky130_fd_sc_hd__clkbuf_16
*I *684:X O *D sky130_fd_sc_hd__clkbuf_16
*CAP
1 *686:A 0.000438769
2 *685:A 0.000479761
3 *684:X 0.00024189
4 *141:8 0.00116042
5 *685:A *542:A 4.93291e-05
6 *686:A *584:A1 0
7 *569:A *141:8 0.000271308
8 *571:A *685:A 0.00017765
9 *588:B *141:8 2.50702e-05
10 *589:A2 *685:A 0
11 *603:B1 *685:A 0.00013744
12 *626:C *685:A 9.3062e-06
13 *684:A *686:A 0
14 *44:10 *685:A 0.000322385
15 *59:14 *685:A 7.63125e-05
16 *59:14 *686:A 0.000272113
17 *89:12 *685:A 5.36851e-05
18 *98:20 *686:A 0.000164874
19 *128:8 *685:A 0
20 *128:8 *686:A 0
*RES
1 *684:X *141:8 6.81 
2 *141:8 *685:A 14.085 
3 *141:8 *686:A 12.975 
*END

*D_NET *142 0.0155991
*CONN
*I *675:CLK I *D sky130_fd_sc_hd__dfrtp_4
*I *674:CLK I *D sky130_fd_sc_hd__dfrtp_1
*I *680:CLK I *D sky130_fd_sc_hd__dfrtp_1
*I *681:CLK I *D sky130_fd_sc_hd__dfrtp_1
*I *677:CLK I *D sky130_fd_sc_hd__dfrtp_1
*I *682:CLK I *D sky130_fd_sc_hd__dfrtp_1
*I *678:CLK I *D sky130_fd_sc_hd__dfrtp_1
*I *666:CLK I *D sky130_fd_sc_hd__dfrtp_1
*I *669:CLK I *D sky130_fd_sc_hd__dfrtp_1
*I *673:CLK I *D sky130_fd_sc_hd__dfrtp_4
*I *668:CLK I *D sky130_fd_sc_hd__dfrtp_1
*I *667:CLK I *D sky130_fd_sc_hd__dfrtp_1
*I *665:CLK I *D sky130_fd_sc_hd__dfrtp_1
*I *683:CLK I *D sky130_fd_sc_hd__dfrtp_1
*I *679:CLK I *D sky130_fd_sc_hd__dfrtp_1
*I *676:CLK I *D sky130_fd_sc_hd__dfrtp_1
*I *685:X O *D sky130_fd_sc_hd__clkbuf_16
*CAP
1 *675:CLK 0.000513788
2 *674:CLK 8.40036e-05
3 *680:CLK 0.000141328
4 *681:CLK 0
5 *677:CLK 3.55506e-05
6 *682:CLK 4.137e-05
7 *678:CLK 0
8 *666:CLK 5.72569e-06
9 *669:CLK 0.000331711
10 *673:CLK 0
11 *668:CLK 5.59499e-05
12 *667:CLK 3.64111e-05
13 *665:CLK 4.13562e-05
14 *683:CLK 0.000148454
15 *679:CLK 0.000357903
16 *676:CLK 0.000175496
17 *685:X 0.000690831
18 *142:170 0.000730147
19 *142:120 4.83461e-05
20 *142:89 5.59499e-05
21 *142:87 0.000505505
22 *142:76 0.000336727
23 *142:65 0.000271977
24 *142:45 0.000688133
25 *142:37 0.000635389
26 *142:33 0.00092242
27 *142:31 0.00108305
28 *142:29 0.0014496
29 *142:14 0.00115124
30 *142:12 0.000177633
31 *142:10 0.000663291
32 *142:8 0.0012406
33 *675:CLK *146:8 0.000268737
34 *676:CLK *676:D 2.11084e-05
35 *676:CLK *681:D 2.62458e-05
36 *679:CLK *679:D 4.7101e-05
37 *680:CLK *680:D 5.83121e-06
38 *682:CLK *682:D 9.37731e-05
39 *683:CLK *683:D 2.66586e-05
40 *142:14 *681:D 2.92017e-05
41 *142:29 *681:D 0.000109789
42 *142:33 *678:D 0.000165547
43 clk_gate_en *142:45 3.0283e-05
44 clk_gate_en *142:65 0
45 clk_gate_en *142:87 0
46 *614:A1 *669:CLK 3.6042e-05
47 *665:D *142:65 0
48 *665:D *142:76 0
49 *665:D *142:87 0
50 *666:D *666:CLK 4.89295e-05
51 *666:D *682:CLK 0.000116165
52 *666:D *142:33 1.55183e-05
53 *666:D *142:37 2.58336e-05
54 *666:D *142:120 2.20014e-05
55 *666:RESET_B *142:37 0.000231909
56 *666:RESET_B *142:45 0
57 *667:D *667:CLK 8.65905e-05
58 *667:D *669:CLK 0.000272084
59 *667:D *142:76 1.52184e-05
60 *667:D *142:87 0.000187306
61 *675:RESET_B *675:CLK 4.56649e-05
62 *678:RESET_B *142:33 4.24575e-05
63 *679:RESET_B *679:CLK 5.82889e-06
64 *679:RESET_B *683:CLK 0.000112622
65 *679:RESET_B *142:45 5.23041e-05
66 *690:A *679:CLK 5.83121e-06
67 *17:160 *142:87 0
68 *17:173 *665:CLK 3.45588e-05
69 *17:237 *142:31 0.000646931
70 *17:237 *142:33 0.000122337
71 *90:8 *142:8 2.88357e-05
*RES
1 *685:X *142:8 14.055 
2 *142:8 *142:10 6.735 
3 *142:10 *142:12 1.635 
4 *142:12 *142:14 1.38 
5 *142:14 *676:CLK 6.705 
6 *142:14 *142:29 12.11 
7 *142:29 *142:31 7.005 
8 *142:31 *142:33 6.66 
9 *142:33 *142:37 6.59 
10 *142:37 *142:45 5.3 
11 *142:45 *679:CLK 7.24 
12 *142:45 *683:CLK 4.48 
13 *142:37 *142:65 1.635 
14 *142:65 *665:CLK 4.395 
15 *142:65 *142:76 2.145 
16 *142:76 *667:CLK 4.395 
17 *142:76 *142:87 3.93 
18 *142:87 *142:89 2 
19 *142:89 *668:CLK 2.395 
20 *142:89 *673:CLK 1.6 
21 *142:87 *669:CLK 10.725 
22 *142:33 *142:120 1.17 
23 *142:120 *666:CLK 2.05 
24 *142:120 *678:CLK 1.6 
25 *142:31 *682:CLK 6.98 
26 *142:29 *677:CLK 2.215 
27 *142:12 *681:CLK 3.6 
28 *142:10 *680:CLK 5.355 
29 *142:8 *142:170 2.145 
30 *142:170 *674:CLK 4.74 
31 *142:170 *675:CLK 13.005 
*END

*D_NET *143 0.0160427
*CONN
*I *664:CLK I *D sky130_fd_sc_hd__dfrtp_1
*I *662:CLK I *D sky130_fd_sc_hd__dfrtp_1
*I *661:CLK I *D sky130_fd_sc_hd__dfrtp_1
*I *672:CLK I *D sky130_fd_sc_hd__dfrtp_1
*I *658:CLK I *D sky130_fd_sc_hd__dfrtp_1
*I *663:CLK I *D sky130_fd_sc_hd__dfrtp_1
*I *660:CLK I *D sky130_fd_sc_hd__dfrtp_1
*I *659:CLK I *D sky130_fd_sc_hd__dfrtp_1
*I *657:CLK I *D sky130_fd_sc_hd__dfrtp_1
*I *671:CLK I *D sky130_fd_sc_hd__dfrtp_1
*I *656:CLK I *D sky130_fd_sc_hd__dfstp_1
*I *670:CLK I *D sky130_fd_sc_hd__dfrtp_1
*I *687:A I *D sky130_fd_sc_hd__bufinv_16
*I *686:X O *D sky130_fd_sc_hd__clkbuf_16
*CAP
1 *664:CLK 0
2 *662:CLK 0
3 *661:CLK 0
4 *672:CLK 0
5 *658:CLK 0.000246916
6 *663:CLK 0
7 *660:CLK 8.18458e-05
8 *659:CLK 0
9 *657:CLK 0.000446587
10 *671:CLK 0.000408584
11 *656:CLK 0
12 *670:CLK 0.000286402
13 *687:A 0
14 *686:X 1.85694e-05
15 *143:118 0.000379332
16 *143:116 0.000561872
17 *143:114 0.000970087
18 *143:101 0.000634953
19 *143:95 0.000363337
20 *143:80 0.00086729
21 *143:33 0.000457873
22 *143:27 0.000580055
23 *143:25 0.000795447
24 *143:16 0.000948985
25 *143:6 0.00113512
26 *657:CLK *159:27 6.41634e-05
27 *657:CLK *173:8 9.27495e-05
28 *658:CLK *703:A 3.47421e-05
29 *671:CLK *174:14 0
30 *143:33 *618:A 0.000239813
31 *143:101 *538:A 9.29807e-05
32 *143:101 *538:B 4.53798e-05
33 *536:A *143:16 4.82863e-05
34 *580:B *143:16 4.43871e-06
35 *612:A *658:CLK 3.72673e-05
36 *612:A *670:CLK 0.000669574
37 *614:A1 *670:CLK 2.03321e-05
38 *615:A1 *143:33 5.4003e-05
39 *616:B *143:16 0.000132415
40 *616:B *143:80 1.33285e-05
41 *620:A *671:CLK 0
42 *620:A *143:33 7.60965e-05
43 *629:B *671:CLK 0.000134827
44 *631:A *671:CLK 2.51954e-05
45 *644:B *143:118 1.47256e-05
46 *650:B *143:114 0
47 *652:B *143:114 0.000124311
48 *653:A *143:101 9.12494e-06
49 *653:A *143:114 0.000103473
50 *654:B *143:95 0.00011023
51 *654:B *143:101 0.000177023
52 *654:B *143:114 5.04423e-05
53 *656:D *670:CLK 0
54 *656:SET_B *657:CLK 0.000113247
55 *656:SET_B *670:CLK 2.49909e-05
56 *656:SET_B *143:25 0.000150188
57 *656:SET_B *143:33 4.66826e-05
58 *658:RESET_B *143:116 0.00019044
59 *659:D *143:25 0.000183656
60 *659:RESET_B *143:25 2.53494e-05
61 *660:D *143:80 9.50342e-06
62 *660:D *143:95 0.000258408
63 *660:RESET_B *143:114 0
64 *661:D *143:116 6.84173e-05
65 *661:D *143:118 6.97118e-05
66 *661:RESET_B *143:116 2.53494e-05
67 *662:RESET_B *143:114 0.00015737
68 *664:D *143:101 0.000119873
69 *668:D *670:CLK 0.000259282
70 *671:D *671:CLK 0.000167973
71 *672:D *658:CLK 0.000214222
72 *672:RESET_B *658:CLK 6.07347e-05
73 *672:RESET_B *143:118 2.96334e-05
74 *17:37 *143:114 0.000391354
75 *17:49 *143:114 0.000238768
76 *17:49 *143:116 0.00021052
77 *17:80 *671:CLK 4.90291e-05
78 *17:130 *143:16 0.000253946
79 *17:130 *143:25 0.000195453
80 *17:154 *670:CLK 0
81 *59:14 *143:16 4.94122e-05
82 *59:58 *671:CLK 9.00706e-05
83 *87:16 *143:16 1.32843e-05
84 *94:12 *671:CLK 9.54399e-05
85 *94:34 *671:CLK 0.000116853
86 *94:34 *143:33 0.000127373
87 *98:20 *143:16 7.63359e-05
88 *125:8 *143:6 9.53428e-06
89 *125:8 *143:80 0.000392136
*RES
1 *686:X *143:6 1.96 
2 *143:6 *143:16 13.87 
3 *143:16 *687:A 1.6 
4 *143:16 *143:25 8.055 
5 *143:25 *143:27 2 
6 *143:27 *143:33 6.665 
7 *143:33 *670:CLK 14.315 
8 *143:33 *656:CLK 1.6 
9 *143:27 *671:CLK 12.435 
10 *143:25 *657:CLK 9.295 
11 *143:25 *659:CLK 1.6 
12 *143:6 *143:80 9.83 
13 *143:80 *660:CLK 4.755 
14 *143:80 *143:95 7.97 
15 *143:95 *143:101 5.285 
16 *143:101 *663:CLK 3.6 
17 *143:101 *143:114 14.255 
18 *143:114 *143:116 9.075 
19 *143:116 *143:118 2.52 
20 *143:118 *658:CLK 10.475 
21 *143:118 *672:CLK 1.6 
22 *143:116 *661:CLK 1.6 
23 *143:114 *662:CLK 1.6 
24 *143:95 *664:CLK 1.6 
*END

*D_NET *144 0.00814966
*CONN
*I *590:A1 I *D sky130_fd_sc_hd__o311a_1
*I *555:A I *D sky130_fd_sc_hd__nand2_1
*I *542:A I *D sky130_fd_sc_hd__nor2_1
*I *624:B I *D sky130_fd_sc_hd__nand3_1
*I *570:B I *D sky130_fd_sc_hd__nand2_1
*I *606:A I *D sky130_fd_sc_hd__nor2_1
*I *605:A1 I *D sky130_fd_sc_hd__o21a_1
*I *560:A I *D sky130_fd_sc_hd__inv_2
*I *673:Q O *D sky130_fd_sc_hd__dfrtp_4
*CAP
1 *590:A1 0
2 *555:A 0
3 *542:A 0.000108061
4 *624:B 0.000116553
5 *570:B 0.00032759
6 *606:A 3.40913e-05
7 *605:A1 0.000215282
8 *560:A 0
9 *673:Q 2.69242e-05
10 *144:103 0.000488508
11 *144:93 0.000784849
12 *144:50 0.000675486
13 *144:29 0.000603445
14 *144:23 0.000366398
15 *144:15 0.000629342
16 *144:6 7.63764e-05
17 *570:B *609:A 0.000106589
18 *144:50 *609:A 9.54457e-06
19 *144:50 *146:33 6.16226e-06
20 *144:93 *590:A2 4.89395e-05
21 *144:103 *555:B 6.04372e-05
22 *144:103 *145:23 0.000119873
23 *144:103 *146:72 1.56261e-05
24 *542:B *542:A 5.02814e-06
25 *557:B *570:B 0.000114852
26 *570:A *570:B 2.97004e-06
27 *574:A *605:A1 2.75092e-05
28 *574:A *624:B 3.11771e-05
29 *574:A *144:23 1.75023e-05
30 *574:A *144:29 4.7003e-05
31 *574:A *144:50 5.67508e-05
32 *590:B1 *542:A 2.55873e-05
33 *590:B1 *144:93 4.38116e-05
34 *590:C1 *144:93 4.66108e-05
35 *591:C *144:93 2.01737e-05
36 *591:C *144:103 0.00026231
37 *597:A *144:15 4.77757e-05
38 *597:A *144:93 3.6355e-05
39 *600:B *542:A 4.77807e-05
40 *600:B *144:103 2.15454e-05
41 *602:A1 *144:93 4.66108e-05
42 *602:A2 *144:93 6.99872e-05
43 *602:B1 *144:93 7.58267e-05
44 *605:A2 *605:A1 0.000123955
45 *606:B *606:A 5.12969e-06
46 *606:B *144:29 0.000194898
47 *606:B *144:50 0.000136319
48 *608:A2 *605:A1 0.000189845
49 *608:A2 *144:50 6.13162e-05
50 *608:B1 *144:50 2.86975e-05
51 *609:B *570:B 0.000236493
52 *625:A *144:50 8.33066e-06
53 *673:RESET_B *605:A1 0.000198844
54 *685:A *542:A 4.93291e-05
55 *44:10 *144:93 2.69217e-05
56 *47:10 *570:B 0.000122801
57 *88:12 *570:B 0
58 *88:48 *570:B 0
59 *89:12 *542:A 8.7152e-06
60 *90:20 *144:93 0.000302126
61 *90:30 *144:93 0.000271125
62 *90:38 *605:A1 7.46591e-05
63 *101:33 *542:A 2.50751e-05
64 *105:8 *144:15 4.77719e-05
65 *105:8 *144:93 4.66108e-05
66 *105:14 *144:23 2.84864e-05
67 *105:36 *144:23 9.49696e-05
*RES
1 *673:Q *144:6 2.05 
2 *144:6 *560:A 1.6 
3 *144:6 *144:15 1.155 
4 *144:15 *144:23 5.39 
5 *144:23 *144:29 5.83 
6 *144:29 *605:A1 9.87 
7 *144:29 *144:50 6.785 
8 *144:50 *606:A 2.215 
9 *144:50 *570:B 16.59 
10 *144:23 *624:B 5.49 
11 *144:15 *144:93 9.81 
12 *144:93 *144:103 11.155 
13 *144:103 *542:A 7.94 
14 *144:103 *555:A 1.6 
15 *144:93 *590:A1 1.6 
*END

*D_NET *145 0.00135784
*CONN
*I *586:A I *D sky130_fd_sc_hd__inv_2
*I *555:B I *D sky130_fd_sc_hd__nand2_1
*I *543:A I *D sky130_fd_sc_hd__clkbuf_2
*I *674:Q O *D sky130_fd_sc_hd__dfrtp_1
*CAP
1 *586:A 0
2 *555:B 3.55354e-05
3 *543:A 0.000122643
4 *674:Q 0.000152774
5 *145:23 0.000186402
6 *145:6 0.000426284
7 *145:6 *675:D 8.81386e-06
8 *587:B *555:B 1.91597e-05
9 *587:B *145:23 7.26704e-05
10 *600:B *555:B 8.41384e-05
11 *604:A *145:6 2.01737e-05
12 *604:B *145:23 4.89395e-05
13 *144:103 *555:B 6.04372e-05
14 *144:103 *145:23 0.000119873
*RES
1 *674:Q *145:6 3.43 
2 *145:6 *543:A 7.49 
3 *145:6 *145:23 3.495 
4 *145:23 *555:B 2.74 
5 *145:23 *586:A 1.6 
*END

*D_NET *146 0.0102222
*CONN
*I *621:B I *D sky130_fd_sc_hd__nand3_1
*I *559:A1 I *D sky130_fd_sc_hd__o21a_1
*I *563:A I *D sky130_fd_sc_hd__nor2_1
*I *541:A I *D sky130_fd_sc_hd__inv_6
*I *572:B I *D sky130_fd_sc_hd__nand2_1
*I *609:A I *D sky130_fd_sc_hd__nor2_1
*I *608:A1 I *D sky130_fd_sc_hd__a21oi_1
*I *600:A I *D sky130_fd_sc_hd__nor2_1
*I *675:Q O *D sky130_fd_sc_hd__dfrtp_4
*CAP
1 *621:B 2.0132e-05
2 *559:A1 0
3 *563:A 2.49729e-05
4 *541:A 0.00038823
5 *572:B 0.000114281
6 *609:A 0.000112483
7 *608:A1 0
8 *600:A 0
9 *675:Q 0.000759524
10 *146:78 0.00074408
11 *146:72 0.000628274
12 *146:33 0.000955771
13 *146:16 0.000912818
14 *146:14 0.000493381
15 *146:10 0.00085224
16 *146:8 0.00102493
17 *559:B1 *146:72 4.08688e-05
18 *559:B1 *146:78 1.23192e-05
19 *565:B *146:78 0
20 *566:A *541:A 2.86967e-05
21 *566:A *563:A 3.48139e-06
22 *568:A *541:A 2.8585e-06
23 *568:A *563:A 1.07839e-05
24 *568:A *146:78 3.11028e-05
25 *568:B *146:78 5.30673e-05
26 *570:B *609:A 0.000106589
27 *571:B *572:B 0
28 *571:B *146:16 0
29 *589:A1 *572:B 0.000199021
30 *589:A1 *146:14 1.08758e-05
31 *589:A2 *146:14 2.19562e-06
32 *589:B1 *146:8 4.76437e-05
33 *589:B1 *146:10 7.16132e-05
34 *589:B1 *146:14 3.94628e-05
35 *590:A3 *146:72 4.33239e-05
36 *591:A *146:10 6.23512e-05
37 *591:C *146:72 0.000220797
38 *599:A *146:78 5.07376e-05
39 *599:B *146:78 5.95927e-05
40 *603:B1 *572:B 2.05722e-05
41 *621:C *146:10 4.77807e-05
42 *622:A *146:14 0.000268176
43 *625:A *609:A 0
44 *626:C *572:B 0.000117265
45 *671:D *146:33 0.000143849
46 *675:CLK *146:8 0.000268737
47 *675:RESET_B *146:8 7.95914e-05
48 *44:10 *572:B 2.79424e-05
49 *44:10 *146:16 0.000111087
50 *88:18 *146:33 0.000227159
51 *90:10 *146:72 0.000199811
52 *90:20 *146:72 3.81897e-05
53 *90:38 *541:A 0.000203576
54 *90:87 *146:72 0.000256523
55 *103:17 *146:72 2.76109e-05
56 *103:17 *146:78 1.27474e-05
57 *108:6 *146:78 1.17309e-05
58 *144:50 *609:A 9.54457e-06
59 *144:50 *146:33 6.16226e-06
60 *144:103 *146:72 1.56261e-05
*RES
1 *675:Q *146:8 11.38 
2 *146:8 *146:10 3.21 
3 *146:10 *146:14 5.9 
4 *146:14 *146:16 1.38 
5 *146:16 *600:A 3.6 
6 *146:16 *146:33 2.61063 
7 *146:33 *608:A1 3.6 
8 *146:33 *609:A 5.685 
9 *146:14 *572:B 6.495 
10 *146:10 *146:72 10.055 
11 *146:72 *146:78 6.77 
12 *146:78 *541:A 7.945 
13 *146:78 *563:A 2.41 
14 *146:72 *559:A1 3.6 
15 *146:8 *621:B 1.96 
*END

*D_NET *147 0.000474367
*CONN
*I *575:B I *D sky130_fd_sc_hd__nand2_1
*I *688:X O *D sky130_fd_sc_hd__clkbuf_1
*CAP
1 *575:B 0.000136432
2 *688:X 0.000136432
3 *575:B *575:A 0.000201503
*RES
1 *688:X *575:B 5.99 
*END

*D_NET *148 0.0038648
*CONN
*I *707:A I *D sky130_fd_sc_hd__clkbuf_1
*I *617:Y O *D sky130_fd_sc_hd__a211oi_1
*CAP
1 *707:A 0.00108443
2 *617:Y 0.00108443
3 *707:A *550:A 0
4 *707:A *695:A 3.62258e-06
5 *707:A *176:16 0
6 *576:A2 *707:A 6.14689e-05
7 *616:B *707:A 5.4155e-06
8 *617:A1 *707:A 2.75229e-05
9 *617:B1 *707:A 3.61284e-05
10 *639:B *707:A 0.000156629
11 *640:A *707:A 0.000193679
12 *660:D *707:A 0.000157401
13 *660:RESET_B *707:A 0.000307634
14 *671:D *707:A 1.08758e-05
15 *17:130 *707:A 0.000131874
16 *59:18 *707:A 1.07593e-05
17 *59:93 *707:A 2.86691e-05
18 *59:106 *707:A 5.49399e-05
19 *85:12 *707:A 8.37253e-05
20 *86:10 *707:A 7.67296e-05
21 *86:12 *707:A 6.15341e-05
22 *124:10 *707:A 0.000287337
*RES
1 *617:Y *707:A 29.91 
*END

*D_NET *149 0.000224499
*CONN
*I *696:A I *D sky130_fd_sc_hd__buf_4
*I *666:Q O *D sky130_fd_sc_hd__dfrtp_1
*CAP
1 *696:A 6.81163e-05
2 *666:Q 6.81163e-05
3 pwr_gate_en *696:A 8.8266e-05
*RES
1 *666:Q *696:A 4.61 
*END

*D_NET *150 0.000349531
*CONN
*I *697:A I *D sky130_fd_sc_hd__clkbuf_2
*I *671:Q O *D sky130_fd_sc_hd__dfrtp_1
*CAP
1 *697:A 0.000174765
2 *671:Q 0.000174765
3 pwr_state[0] *697:A 0
*RES
1 *671:Q *697:A 9.63 
*END

*D_NET *151 0.000299825
*CONN
*I *698:A I *D sky130_fd_sc_hd__clkbuf_2
*I *672:Q O *D sky130_fd_sc_hd__dfrtp_1
*CAP
1 *698:A 0.000149912
2 *672:Q 0.000149912
*RES
1 *672:Q *698:A 9.12 
*END

*D_NET *152 0.000174185
*CONN
*I *699:A I *D sky130_fd_sc_hd__buf_2
*I *670:Q O *D sky130_fd_sc_hd__dfrtp_1
*CAP
1 *699:A 8.70924e-05
2 *670:Q 8.70924e-05
3 reset_ctrl *699:A 0
*RES
1 *670:Q *699:A 8.58 
*END

*D_NET *153 0.000656261
*CONN
*I *700:A I *D sky130_fd_sc_hd__buf_4
*I *667:Q O *D sky130_fd_sc_hd__dfrtp_1
*CAP
1 *700:A 0.000267811
2 *667:Q 0.000267811
3 *700:A *704:A 7.23533e-05
4 retention_en *700:A 4.82863e-05
5 *665:RESET_B *700:A 0
*RES
1 *667:Q *700:A 11.52 
*END

*D_NET *154 0.000168538
*CONN
*I *701:A I *D sky130_fd_sc_hd__buf_2
*I *669:Q O *D sky130_fd_sc_hd__dfrtp_1
*CAP
1 *701:A 8.42688e-05
2 *669:Q 8.42688e-05
*RES
1 *669:Q *701:A 8.58 
*END

*D_NET *155 0.000180115
*CONN
*I *702:A I *D sky130_fd_sc_hd__buf_2
*I *668:Q O *D sky130_fd_sc_hd__dfrtp_1
*CAP
1 *702:A 7.05892e-05
2 *668:Q 7.05892e-05
3 retention_save *702:A 3.89366e-05
*RES
1 *668:Q *702:A 8.58 
*END

*D_NET *156 0.0015218
*CONN
*I *708:A I *D sky130_fd_sc_hd__buf_1
*I *557:Y O *D sky130_fd_sc_hd__nor2_1
*CAP
1 *708:A 0.000456866
2 *557:Y 0.000456866
3 *708:A *615:A2 1.08056e-05
4 *708:A *618:A 1.37328e-05
5 *708:A *159:10 8.58181e-05
6 *549:A *708:A 5.3844e-05
7 *549:B *708:A 1.08758e-05
8 *553:A *708:A 0.000281126
9 *569:B *708:A 7.27003e-05
10 *570:A *708:A 4.1652e-06
11 *607:A *708:A 0
12 *615:A1 *708:A 0
13 *615:B1 *708:A 6.08906e-05
14 *96:8 *708:A 1.41095e-05
*RES
1 *557:Y *708:A 15.99 
*END

*D_NET *157 0.00341863
*CONN
*I *695:A I *D sky130_fd_sc_hd__clkbuf_2
*I *707:X O *D sky130_fd_sc_hd__clkbuf_1
*CAP
1 *695:A 0.00130526
2 *707:X 0.00130526
3 *695:A *703:A 0.000431328
4 *695:A *174:14 0.000239726
5 seq_busy *695:A 0.00012657
6 *658:RESET_B *695:A 0
7 *671:D *695:A 6.85995e-06
8 *707:A *695:A 3.62258e-06
*RES
1 *707:X *695:A 28.185 
*END

*D_NET *158 0.00294023
*CONN
*I *575:A I *D sky130_fd_sc_hd__nand2_1
*I *689:X O *D sky130_fd_sc_hd__clkbuf_1
*CAP
1 *575:A 0.0013559
2 *689:X 0.0013559
3 *575:B *575:A 0.000201503
4 *688:A *575:A 2.69174e-05
*RES
1 *689:X *575:A 30.27 
*END

*D_NET *159 0.00757945
*CONN
*I *703:A I *D sky130_fd_sc_hd__clkbuf_2
*I *642:A I *D sky130_fd_sc_hd__nand3_1
*I *619:A I *D sky130_fd_sc_hd__nand2_1
*I *618:B I *D sky130_fd_sc_hd__or2_1
*I *708:X O *D sky130_fd_sc_hd__buf_1
*CAP
1 *703:A 0.000446292
2 *642:A 0.00121179
3 *619:A 2.2266e-05
4 *618:B 0
5 *708:X 0.000138725
6 *159:38 0.00188923
7 *159:27 0.000787531
8 *159:10 0.000672842
9 *642:A *177:12 5.31158e-06
10 *549:A *159:10 9.43764e-06
11 *612:A *703:A 3.54721e-05
12 *612:A *159:27 0.000136321
13 *612:A *159:38 0.000251239
14 *615:A1 *159:10 4.31921e-05
15 *615:A1 *159:27 2.42236e-05
16 *627:A *619:A 4.82919e-05
17 *631:A *159:38 0.000115945
18 *631:B *642:A 0.000170941
19 *641:B *642:A 4.69705e-05
20 *649:B *642:A 7.59067e-05
21 *656:SET_B *159:27 0.000306253
22 *657:CLK *159:27 6.41634e-05
23 *657:RESET_B *159:27 0.000123971
24 *657:RESET_B *159:38 0.000209
25 *658:CLK *703:A 3.47421e-05
26 *658:D *703:A 5.62235e-05
27 *658:D *159:38 4.28112e-06
28 *672:D *703:A 9.30787e-05
29 *672:RESET_B *703:A 0
30 *684:A *703:A 0
31 *695:A *703:A 0.000431328
32 *708:A *159:10 8.58181e-05
33 *94:34 *159:27 3.86529e-05
*RES
1 *708:X *159:10 5.61 
2 *159:10 *618:B 3.6 
3 *159:10 *159:27 12.88 
4 *159:27 *619:A 4.05 
5 *159:27 *159:38 6.735 
6 *159:38 *642:A 22.105 
7 *159:38 *703:A 13.215 
*END

*D_NET *160 0.000360551
*CONN
*I *679:D I *D sky130_fd_sc_hd__dfrtp_1
*I *690:X O *D sky130_fd_sc_hd__clkbuf_1
*CAP
1 *679:D 0.000132582
2 *690:X 0.000132582
3 *679:CLK *679:D 4.7101e-05
4 *690:A *679:D 4.82863e-05
*RES
1 *690:X *679:D 5.045 
*END

*D_NET *161 0.000323471
*CONN
*I *677:D I *D sky130_fd_sc_hd__dfrtp_1
*I *691:X O *D sky130_fd_sc_hd__clkbuf_1
*CAP
1 *677:D 0.000161735
2 *691:X 0.000161735
*RES
1 *691:X *677:D 9.375 
*END

*D_NET *162 0.0011244
*CONN
*I *678:D I *D sky130_fd_sc_hd__dfrtp_1
*I *692:X O *D sky130_fd_sc_hd__clkbuf_1
*CAP
1 *678:D 0.00028899
2 *692:X 0.00028899
3 *678:D *561:A 8.36164e-05
4 *666:D *678:D 0.000243256
5 *692:A *678:D 5.4003e-05
6 *142:33 *678:D 0.000165547
*RES
1 *692:X *678:D 14.205 
*END

*D_NET *163 0.00354353
*CONN
*I *581:A I *D sky130_fd_sc_hd__inv_2
*I *693:X O *D sky130_fd_sc_hd__buf_1
*CAP
1 *581:A 0.00176591
2 *693:X 0.00176591
3 *693:A *581:A 1.17114e-05
*RES
1 *693:X *581:A 35.04 
*END

*D_NET *164 0.00150118
*CONN
*I *676:D I *D sky130_fd_sc_hd__dfrtp_1
*I *694:X O *D sky130_fd_sc_hd__clkbuf_1
*CAP
1 *676:D 0.000726276
2 *694:X 0.000726276
3 *676:CLK *676:D 2.11084e-05
4 *694:A *676:D 2.75229e-05
*RES
1 *694:X *676:D 11.255 
*END

*D_NET *165 0.000458105
*CONN
*I *704:A I *D sky130_fd_sc_hd__buf_4
*I *665:Q O *D sky130_fd_sc_hd__dfrtp_1
*CAP
1 *704:A 0.000192876
2 *665:Q 0.000192876
3 *700:A *704:A 7.23533e-05
*RES
1 *665:Q *704:A 10.62 
*END

*D_NET *166 0.000561206
*CONN
*I *705:A I *D sky130_fd_sc_hd__clkbuf_2
*I *656:Q O *D sky130_fd_sc_hd__dfstp_1
*CAP
1 *705:A 0.000280603
2 *656:Q 0.000280603
3 dvfs_ctrl[1] *705:A 0
4 *657:D *705:A 0
*RES
1 *656:Q *705:A 11.4975 
*END

*D_NET *167 0.000621493
*CONN
*I *673:D I *D sky130_fd_sc_hd__dfrtp_4
*I *574:Y O *D sky130_fd_sc_hd__inv_2
*CAP
1 *673:D 0.000310747
2 *574:Y 0.000310747
*RES
1 *574:Y *673:D 11.7 
*END

*D_NET *168 0.00146564
*CONN
*I *674:D I *D sky130_fd_sc_hd__dfrtp_1
*I *592:X O *D sky130_fd_sc_hd__clkbuf_1
*CAP
1 *674:D 0.000732818
2 *592:X 0.000732818
*RES
1 *592:X *674:D 16.095 
*END

*D_NET *169 0.000695089
*CONN
*I *675:D I *D sky130_fd_sc_hd__dfrtp_4
*I *604:Y O *D sky130_fd_sc_hd__nand2_1
*CAP
1 *675:D 0.000314343
2 *604:Y 0.000314343
3 *604:A *675:D 2.69153e-05
4 *675:RESET_B *675:D 3.06743e-05
5 *145:6 *675:D 8.81386e-06
*RES
1 *604:Y *675:D 11.19 
*END

*D_NET *170 0.000831097
*CONN
*I *561:A I *D sky130_fd_sc_hd__inv_2
*I *683:Q O *D sky130_fd_sc_hd__dfrtp_1
*CAP
1 *561:A 0.000340177
2 *683:Q 0.000340177
3 *561:A *682:D 0
4 *673:RESET_B *561:A 0
5 *678:D *561:A 8.36164e-05
6 *683:RESET_B *561:A 6.71254e-05
7 *17:203 *561:A 0
*RES
1 *683:Q *561:A 12.63 
*END

*D_NET *171 0.00212904
*CONN
*I *558:A I *D sky130_fd_sc_hd__inv_2
*I *601:C I *D sky130_fd_sc_hd__nand3_1
*I *681:Q O *D sky130_fd_sc_hd__dfrtp_1
*CAP
1 *558:A 0
2 *601:C 0.000388161
3 *681:Q 0.000327295
4 *171:12 0.000715456
5 *171:12 *564:A 3.00381e-05
6 *562:A *601:C 0
7 *565:A *601:C 2.11084e-05
8 *565:C *601:C 5.05437e-05
9 *598:A *601:C 0.000174409
10 *681:RESET_B *171:12 0.000255172
11 *682:RESET_B *171:12 3.64998e-06
12 *109:12 *171:12 0.000163204
*RES
1 *681:Q *171:12 12.08 
2 *171:12 *601:C 7.885 
3 *171:12 *558:A 1.6 
*END

*D_NET *172 0.000137184
*CONN
*I *564:A I *D sky130_fd_sc_hd__inv_2
*I *682:Q O *D sky130_fd_sc_hd__dfrtp_1
*CAP
1 *564:A 2.58841e-05
2 *682:Q 2.58841e-05
3 *681:RESET_B *564:A 5.53774e-05
4 *171:12 *564:A 3.00381e-05
*RES
1 *682:Q *564:A 4.01 
*END

*D_NET *173 0.00493605
*CONN
*I *619:B I *D sky130_fd_sc_hd__nand2_1
*I *535:B I *D sky130_fd_sc_hd__nand2_1
*I *615:A2 I *D sky130_fd_sc_hd__o211a_1
*I *548:A I *D sky130_fd_sc_hd__inv_2
*I *618:A I *D sky130_fd_sc_hd__or2_1
*I *657:Q O *D sky130_fd_sc_hd__dfrtp_1
*CAP
1 *619:B 1.79648e-05
2 *535:B 0
3 *615:A2 0.000259567
4 *548:A 0
5 *618:A 0.000253669
6 *657:Q 0.000115433
7 *173:43 0.000503859
8 *173:35 0.000387057
9 *173:27 0.000201246
10 *173:8 0.000409618
11 *173:43 *535:A 4.89295e-05
12 *173:43 *174:14 3.75126e-05
13 *546:A *615:A2 4.77757e-05
14 *549:A *618:A 5.83121e-06
15 *553:A *615:A2 0.000116853
16 *612:A *618:A 0.000239693
17 *612:A *619:B 4.38051e-05
18 *612:A *173:27 8.5242e-05
19 *615:B1 *615:A2 3.01547e-05
20 *620:A *618:A 3.72703e-05
21 *620:A *619:B 1.94892e-05
22 *620:A *173:27 3.18219e-05
23 *620:B *173:35 2.32597e-05
24 *627:A *173:35 8.65961e-05
25 *627:B *173:35 0.000197269
26 *656:SET_B *618:A 9.30787e-05
27 *657:CLK *173:8 9.27495e-05
28 *659:D *173:43 7.23602e-05
29 *671:D *615:A2 0.000191486
30 *671:D *173:43 0.00019874
31 *708:A *615:A2 1.08056e-05
32 *708:A *618:A 1.37328e-05
33 *59:39 *173:35 8.14011e-05
34 *59:39 *173:43 3.89563e-05
35 *60:10 *173:35 0.000157172
36 *82:10 *173:43 0.00016031
37 *87:16 *615:A2 0.000195432
38 *94:6 *173:35 8.63496e-05
39 *94:6 *173:43 2.14005e-05
40 *94:12 *173:35 8.23457e-05
41 *94:34 *173:43 0
42 *143:33 *618:A 0.000239813
*RES
1 *657:Q *173:8 5.085 
2 *173:8 *618:A 9.945 
3 *173:8 *173:27 1.125 
4 *173:27 *173:35 6.965 
5 *173:35 *173:43 8.12 
6 *173:43 *548:A 3.6 
7 *173:43 *615:A2 9.42 
8 *173:35 *535:B 1.6 
9 *173:27 *619:B 4.215 
*END

*D_NET *174 0.00178973
*CONN
*I *547:A I *D sky130_fd_sc_hd__inv_2
*I *535:A I *D sky130_fd_sc_hd__nand2_1
*I *658:Q O *D sky130_fd_sc_hd__dfrtp_1
*CAP
1 *547:A 0
2 *535:A 8.30169e-06
3 *658:Q 0.000548092
4 *174:14 0.000556394
5 *644:A *174:14 2.02993e-05
6 *671:CLK *174:14 0
7 *671:D *174:14 0.000274933
8 *695:A *174:14 0.000239726
9 *59:39 *535:A 2.86975e-05
10 *59:39 *174:14 2.68464e-05
11 *173:43 *535:A 4.89295e-05
12 *173:43 *174:14 3.75126e-05
*RES
1 *658:Q *174:14 15.38 
2 *174:14 *535:A 2.05 
3 *174:14 *547:A 1.6 
*END

*D_NET *175 0.00195157
*CONN
*I *578:B I *D sky130_fd_sc_hd__nand2_1
*I *534:B I *D sky130_fd_sc_hd__nor2_1
*I *632:A I *D sky130_fd_sc_hd__inv_2
*I *552:A I *D sky130_fd_sc_hd__or3_1
*I *584:A1 I *D sky130_fd_sc_hd__a21oi_1
*I *659:Q O *D sky130_fd_sc_hd__dfrtp_1
*CAP
1 *578:B 0
2 *534:B 0.000105479
3 *632:A 0
4 *552:A 0
5 *584:A1 0.000159738
6 *659:Q 0
7 *175:41 0.000158929
8 *175:34 0.000186721
9 *175:8 0.000306076
10 *175:6 0.00027961
11 *552:C *584:A1 1.07157e-05
12 *552:C *175:8 2.78196e-05
13 *671:D *175:8 0
14 *671:D *175:34 0
15 *686:A *584:A1 0
16 *59:26 *175:34 4.77757e-05
17 *59:26 *175:41 0.00035085
18 *82:10 *175:34 2.68526e-05
19 *82:10 *175:41 0.000106754
20 *98:20 *534:B 2.10433e-05
21 *122:10 *175:41 0.000163204
*RES
1 *659:Q *175:6 3.6 
2 *175:6 *175:8 2.4 
3 *175:8 *584:A1 6.06 
4 *175:8 *552:A 3.6 
5 *175:6 *175:34 4.34 
6 *175:34 *632:A 1.6 
7 *175:34 *175:41 3.21 
8 *175:41 *534:B 7.205 
9 *175:41 *578:B 1.6 
*END

*D_NET *176 0.0012643
*CONN
*I *550:A I *D sky130_fd_sc_hd__inv_2
*I *578:A I *D sky130_fd_sc_hd__nand2_1
*I *534:A I *D sky130_fd_sc_hd__nor2_1
*I *660:Q O *D sky130_fd_sc_hd__dfrtp_1
*CAP
1 *550:A 7.48152e-05
2 *578:A 0.000159805
3 *534:A 0
4 *660:Q 6.84713e-05
5 *176:16 0.000269182
6 *176:8 0.000252663
7 *579:A *176:8 2.75229e-05
8 *579:A *176:16 4.82863e-05
9 *579:B *550:A 1.0145e-05
10 *579:B *578:A 2.41572e-05
11 *579:B *176:16 5.79232e-05
12 *707:A *550:A 0
13 *707:A *176:16 0
14 *17:130 *176:16 1.0183e-05
15 *59:14 *550:A 4.72136e-05
16 *59:14 *176:16 3.44087e-05
17 *59:26 *578:A 3.18332e-05
18 *82:10 *578:A 3.52923e-05
19 *82:10 *176:16 9.13951e-05
20 *84:12 *550:A 9.12494e-06
21 *122:10 *578:A 1.18814e-05
*RES
1 *660:Q *176:8 4.395 
2 *176:8 *176:16 4.715 
3 *176:16 *534:A 1.6 
4 *176:16 *578:A 5.095 
5 *176:8 *550:A 4.98 
*END

*D_NET *177 0.00177971
*CONN
*I *537:B I *D sky130_fd_sc_hd__nor2_1
*I *642:B I *D sky130_fd_sc_hd__nand3_1
*I *641:A_N I *D sky130_fd_sc_hd__nand2b_1
*I *661:Q O *D sky130_fd_sc_hd__dfrtp_1
*CAP
1 *537:B 0.000184404
2 *642:B 0
3 *641:A_N 0
4 *661:Q 0.000279546
5 *177:21 0.000250567
6 *177:12 0.000345709
7 *641:B *177:12 8.33066e-06
8 *642:A *177:12 5.31158e-06
9 *642:C *537:B 0.000196699
10 *643:B *177:21 8.53011e-05
11 *649:B *177:12 0
12 *17:49 *177:12 0.000276548
13 *71:21 *537:B 8.35118e-05
14 *71:21 *177:21 3.75203e-05
15 *74:25 *537:B 2.62602e-05
*RES
1 *661:Q *177:12 9.5 
2 *177:12 *641:A_N 1.6 
3 *177:12 *177:21 1.5 
4 *177:21 *642:B 1.6 
5 *177:21 *537:B 5.17 
*END

*D_NET *178 0.000551928
*CONN
*I *645:A I *D sky130_fd_sc_hd__inv_2
*I *537:A I *D sky130_fd_sc_hd__nor2_1
*I *662:Q O *D sky130_fd_sc_hd__dfrtp_1
*CAP
1 *645:A 0
2 *537:A 5.1939e-05
3 *662:Q 0.000132079
4 *178:12 0.000184018
5 *660:RESET_B *178:12 6.28143e-05
6 *662:RESET_B *178:12 4.80285e-05
7 *74:25 *537:A 7.30505e-05
*RES
1 *662:Q *178:12 7.775 
2 *178:12 *537:A 2.74 
3 *178:12 *645:A 1.6 
*END

*D_NET *179 0.00238509
*CONN
*I *650:A I *D sky130_fd_sc_hd__or2_1
*I *538:A I *D sky130_fd_sc_hd__nor2_1
*I *651:B I *D sky130_fd_sc_hd__nand2_1
*I *663:Q O *D sky130_fd_sc_hd__dfrtp_1
*CAP
1 *650:A 9.05994e-05
2 *538:A 0.00010262
3 *651:B 5.30376e-05
4 *663:Q 0.000403641
5 *179:10 0.000317958
6 *179:6 0.00065654
7 *653:A *538:A 2.98587e-05
8 *653:B *538:A 0.000134847
9 *654:B *538:A 7.28465e-06
10 *655:A *538:A 5.31158e-06
11 *663:D *651:B 5.83121e-06
12 *663:D *179:10 0.000103635
13 *663:RESET_B *179:6 0.000118246
14 *664:D *538:A 2.69153e-05
15 *74:25 *651:B 3.5678e-06
16 *78:8 *651:B 8.52972e-05
17 *78:8 *179:10 0.000118081
18 *85:12 *538:A 2.88357e-05
19 *143:101 *538:A 9.29807e-05
*RES
1 *663:Q *179:6 6.19 
2 *179:6 *179:10 3.225 
3 *179:10 *651:B 2.755 
4 *179:10 *538:A 8.705 
5 *179:6 *650:A 6.725 
*END

*D_NET *180 0.00178422
*CONN
*I *654:A I *D sky130_fd_sc_hd__xor2_1
*I *538:B I *D sky130_fd_sc_hd__nor2_1
*I *664:Q O *D sky130_fd_sc_hd__dfrtp_1
*CAP
1 *654:A 8.76199e-05
2 *538:B 0.000267567
3 *664:Q 0.000465256
4 *180:6 0.000820443
5 *664:D *538:B 5.47309e-05
6 *664:RESET_B *180:6 4.32278e-05
7 *143:101 *538:B 4.53798e-05
*RES
1 *664:Q *180:6 6.88 
2 *180:6 *538:B 5.08 
3 *180:6 *654:A 6.98 
*END

*D_NET *181 0.00188408
*CONN
*I *680:D I *D sky130_fd_sc_hd__dfrtp_1
*I *676:Q O *D sky130_fd_sc_hd__dfrtp_1
*CAP
1 *680:D 0.000847081
2 *676:Q 0.000847081
3 *680:D *681:D 0
4 *676:RESET_B *680:D 4.2138e-05
5 *680:CLK *680:D 5.83121e-06
6 *17:259 *680:D 7.45794e-05
7 *17:277 *680:D 6.73751e-05
*RES
1 *676:Q *680:D 19.77 
*END

*D_NET *182 0.000638315
*CONN
*I *681:D I *D sky130_fd_sc_hd__dfrtp_1
*I *677:Q O *D sky130_fd_sc_hd__dfrtp_1
*CAP
1 *681:D 0.000236539
2 *677:Q 0.000236539
3 *676:CLK *681:D 2.62458e-05
4 *680:D *681:D 0
5 *142:14 *681:D 2.92017e-05
6 *142:29 *681:D 0.000109789
*RES
1 *677:Q *681:D 11.61 
*END

*D_NET *183 0.000562894
*CONN
*I *682:D I *D sky130_fd_sc_hd__dfrtp_1
*I *678:Q O *D sky130_fd_sc_hd__dfrtp_1
*CAP
1 *682:D 0.00021192
2 *678:Q 0.00021192
3 *561:A *682:D 0
4 *666:D *682:D 3.68705e-05
5 *682:CLK *682:D 9.37731e-05
6 *17:223 *682:D 8.41015e-06
*RES
1 *678:Q *682:D 10.575 
*END

*D_NET *184 0.000453674
*CONN
*I *683:D I *D sky130_fd_sc_hd__dfrtp_1
*I *679:Q O *D sky130_fd_sc_hd__dfrtp_1
*CAP
1 *683:D 0.000198489
2 *679:Q 0.000198489
3 *679:RESET_B *683:D 3.00381e-05
4 *683:CLK *683:D 2.66586e-05
*RES
1 *679:Q *683:D 5.735 
*END

*D_NET *185 0.00135017
*CONN
*I *590:A2 I *D sky130_fd_sc_hd__o311a_1
*I *567:A I *D sky130_fd_sc_hd__inv_2
*I *680:Q O *D sky130_fd_sc_hd__dfrtp_1
*CAP
1 *590:A2 0.000224453
2 *567:A 3.18738e-05
3 *680:Q 0.000325729
4 *185:12 0.000582056
5 *591:C *590:A2 2.38055e-05
6 *602:B1 *590:A2 4.77769e-05
7 *17:287 *185:12 6.55328e-05
8 *103:17 *590:A2 0
9 *144:93 *590:A2 4.89395e-05
*RES
1 *680:Q *185:12 10.88 
2 *185:12 *567:A 2.05 
3 *185:12 *590:A2 9.32 
*END
