*SPEF "ieee 1481-1999"
*DESIGN "pmu_fsm"
*DATE "02:47:08 Tuesday October 14, 2025"
*VENDOR "The OpenROAD Project"
*PROGRAM "OpenROAD"
*VERSION "b16bda7e82721d10566ff7e2b68f1ff0be9f9e38"
*DESIGN_FLOW "NAME_SCOPE LOCAL" "PIN_CAP NONE"
*DIVIDER /
*DELIMITER :
*BUS_DELIMITER []
*T_UNIT 1 NS
*C_UNIT 1 PF
*R_UNIT 1 OHM
*L_UNIT 1 HENRY

*NAME_MAP
*3 clk
*4 clk_gate_en
*5 clk_stable
*6 net21
*7 dvfs_ctrl[1]
*8 error
*9 pwr_gate_en
*10 pwr_stable
*11 pwr_state[0]
*12 pwr_state[1]
*13 req_idle
*14 req_off
*15 req_sleep
*16 reset_ctrl
*17 reset_n
*18 retention_en
*19 retention_ready
*20 retention_restore
*21 retention_save
*22 seq_busy
*23 wake_up
*24 _000_
*25 _001_
*26 _002_
*27 _003_
*28 _004_
*29 _005_
*30 _006_
*31 _007_
*32 _008_
*33 _009_
*34 _010_
*35 _011_
*36 _012_
*37 _013_
*38 _014_
*39 _015_
*40 _016_
*41 _017_
*42 _018_
*43 _019_
*44 _020_
*45 _021_
*46 _022_
*47 _023_
*48 _024_
*49 _025_
*50 _026_
*51 _027_
*52 _028_
*53 _029_
*54 _030_
*55 _031_
*56 _032_
*57 _033_
*58 _034_
*59 _035_
*60 _036_
*61 _037_
*62 _038_
*63 _039_
*64 _040_
*65 _041_
*66 _042_
*67 _043_
*68 _044_
*69 _045_
*70 _046_
*71 _047_
*72 _048_
*73 _049_
*74 _050_
*75 _051_
*76 _052_
*77 _053_
*78 _054_
*79 _055_
*80 _056_
*81 _057_
*82 _058_
*83 _059_
*84 _060_
*85 _061_
*86 _062_
*87 _063_
*88 _064_
*89 _065_
*90 _066_
*91 _067_
*92 _068_
*93 _069_
*94 _070_
*95 _071_
*96 _072_
*97 _073_
*98 _074_
*99 _075_
*100 _076_
*101 _077_
*102 _078_
*103 _079_
*104 _080_
*105 _081_
*106 _082_
*107 _083_
*108 _084_
*109 _085_
*110 _086_
*111 _087_
*112 _088_
*113 _089_
*114 _090_
*115 _091_
*116 _092_
*117 _093_
*118 _094_
*119 _095_
*120 _096_
*121 _097_
*122 _098_
*123 _099_
*124 _100_
*125 _101_
*126 _102_
*127 _103_
*128 _104_
*129 _105_
*130 _106_
*131 _107_
*132 _108_
*133 _109_
*134 _110_
*135 _111_
*136 _112_
*137 _113_
*138 _114_
*139 _115_
*140 _116_
*141 clknet_0_clk
*142 clknet_1_0__leaf_clk
*143 clknet_1_1__leaf_clk
*144 curr_state\[0\]
*145 curr_state\[1\]
*146 curr_state\[2\]
*147 net1
*148 net10
*149 net11
*150 net12
*151 net13
*152 net14
*153 net15
*154 net16
*155 net17
*156 net18
*157 net19
*158 net2
*159 net20
*160 net3
*161 net4
*162 net5
*163 net6
*164 net7
*165 net8
*166 net9
*167 next_state\[0\]
*168 next_state\[1\]
*169 next_state\[2\]
*170 req_idle_sync
*171 req_off_sync
*172 req_sleep_sync
*173 seq_timer\[0\]
*174 seq_timer\[1\]
*175 seq_timer\[2\]
*176 seq_timer\[3\]
*177 seq_timer\[4\]
*178 seq_timer\[5\]
*179 seq_timer\[6\]
*180 seq_timer\[7\]
*181 sync_stage1\[0\]
*182 sync_stage1\[1\]
*183 sync_stage1\[2\]
*184 sync_stage1\[3\]
*185 wake_up_sync
*186 FILLER_0_0_105
*187 FILLER_0_0_111
*188 FILLER_0_0_113
*189 FILLER_0_0_121
*190 FILLER_0_0_126
*191 FILLER_0_0_27
*192 FILLER_0_0_3
*193 FILLER_0_0_52
*194 FILLER_0_0_57
*195 FILLER_0_0_69
*196 FILLER_0_10_100
*197 FILLER_0_10_112
*198 FILLER_0_10_124
*199 FILLER_0_10_18
*200 FILLER_0_10_25
*201 FILLER_0_10_29
*202 FILLER_0_10_33
*203 FILLER_0_10_37
*204 FILLER_0_10_41
*205 FILLER_0_10_53
*206 FILLER_0_10_57
*207 FILLER_0_10_7
*208 FILLER_0_10_88
*209 FILLER_0_11_109
*210 FILLER_0_11_11
*211 FILLER_0_11_113
*212 FILLER_0_11_120
*213 FILLER_0_11_124
*214 FILLER_0_11_17
*215 FILLER_0_11_23
*216 FILLER_0_11_27
*217 FILLER_0_11_3
*218 FILLER_0_11_33
*219 FILLER_0_11_37
*220 FILLER_0_11_49
*221 FILLER_0_11_55
*222 FILLER_0_11_57
*223 FILLER_0_11_85
*224 FILLER_0_11_97
*225 FILLER_0_12_100
*226 FILLER_0_12_112
*227 FILLER_0_12_124
*228 FILLER_0_12_18
*229 FILLER_0_12_26
*230 FILLER_0_12_37
*231 FILLER_0_12_49
*232 FILLER_0_12_6
*233 FILLER_0_12_61
*234 FILLER_0_12_67
*235 FILLER_0_12_83
*236 FILLER_0_12_88
*237 FILLER_0_13_103
*238 FILLER_0_13_111
*239 FILLER_0_13_113
*240 FILLER_0_13_125
*241 FILLER_0_13_24
*242 FILLER_0_13_28
*243 FILLER_0_13_43
*244 FILLER_0_13_83
*245 FILLER_0_13_87
*246 FILLER_0_13_91
*247 FILLER_0_14_109
*248 FILLER_0_14_121
*249 FILLER_0_14_127
*250 FILLER_0_14_29
*251 FILLER_0_14_3
*252 FILLER_0_14_7
*253 FILLER_0_14_80
*254 FILLER_0_14_85
*255 FILLER_0_14_97
*256 FILLER_0_15_102
*257 FILLER_0_15_110
*258 FILLER_0_15_113
*259 FILLER_0_15_125
*260 FILLER_0_15_18
*261 FILLER_0_15_32
*262 FILLER_0_15_44
*263 FILLER_0_15_51
*264 FILLER_0_15_55
*265 FILLER_0_15_57
*266 FILLER_0_15_68
*267 FILLER_0_15_7
*268 FILLER_0_15_90
*269 FILLER_0_16_109
*270 FILLER_0_16_121
*271 FILLER_0_16_127
*272 FILLER_0_16_19
*273 FILLER_0_16_23
*274 FILLER_0_16_27
*275 FILLER_0_16_29
*276 FILLER_0_16_37
*277 FILLER_0_16_51
*278 FILLER_0_16_58
*279 FILLER_0_16_7
*280 FILLER_0_16_72
*281 FILLER_0_16_85
*282 FILLER_0_16_97
*283 FILLER_0_17_106
*284 FILLER_0_17_113
*285 FILLER_0_17_125
*286 FILLER_0_17_23
*287 FILLER_0_17_28
*288 FILLER_0_17_36
*289 FILLER_0_17_41
*290 FILLER_0_17_53
*291 FILLER_0_17_57
*292 FILLER_0_17_64
*293 FILLER_0_17_70
*294 FILLER_0_17_82
*295 FILLER_0_17_86
*296 FILLER_0_17_94
*297 FILLER_0_18_107
*298 FILLER_0_18_119
*299 FILLER_0_18_127
*300 FILLER_0_18_15
*301 FILLER_0_18_22
*302 FILLER_0_18_29
*303 FILLER_0_18_3
*304 FILLER_0_18_41
*305 FILLER_0_18_53
*306 FILLER_0_18_59
*307 FILLER_0_18_66
*308 FILLER_0_18_85
*309 FILLER_0_19_104
*310 FILLER_0_19_113
*311 FILLER_0_19_125
*312 FILLER_0_19_13
*313 FILLER_0_19_35
*314 FILLER_0_19_47
*315 FILLER_0_19_7
*316 FILLER_0_19_73
*317 FILLER_0_19_77
*318 FILLER_0_1_108
*319 FILLER_0_1_113
*320 FILLER_0_1_15
*321 FILLER_0_1_57
*322 FILLER_0_1_69
*323 FILLER_0_1_75
*324 FILLER_0_1_96
*325 FILLER_0_20_108
*326 FILLER_0_20_120
*327 FILLER_0_20_23
*328 FILLER_0_20_49
*329 FILLER_0_20_75
*330 FILLER_0_20_83
*331 FILLER_0_20_85
*332 FILLER_0_20_96
*333 FILLER_0_21_109
*334 FILLER_0_21_11
*335 FILLER_0_21_113
*336 FILLER_0_21_23
*337 FILLER_0_21_27
*338 FILLER_0_21_29
*339 FILLER_0_21_41
*340 FILLER_0_21_53
*341 FILLER_0_21_57
*342 FILLER_0_21_62
*343 FILLER_0_21_74
*344 FILLER_0_21_82
*345 FILLER_0_21_85
*346 FILLER_0_21_97
*347 FILLER_0_2_106
*348 FILLER_0_2_118
*349 FILLER_0_2_126
*350 FILLER_0_2_23
*351 FILLER_0_2_27
*352 FILLER_0_2_29
*353 FILLER_0_2_41
*354 FILLER_0_2_47
*355 FILLER_0_2_51
*356 FILLER_0_2_55
*357 FILLER_0_2_79
*358 FILLER_0_2_83
*359 FILLER_0_2_85
*360 FILLER_0_3_109
*361 FILLER_0_3_113
*362 FILLER_0_3_125
*363 FILLER_0_3_23
*364 FILLER_0_3_35
*365 FILLER_0_3_47
*366 FILLER_0_3_51
*367 FILLER_0_3_55
*368 FILLER_0_3_65
*369 FILLER_0_3_69
*370 FILLER_0_3_74
*371 FILLER_0_3_86
*372 FILLER_0_4_109
*373 FILLER_0_4_121
*374 FILLER_0_4_127
*375 FILLER_0_4_21
*376 FILLER_0_4_27
*377 FILLER_0_4_29
*378 FILLER_0_4_44
*379 FILLER_0_4_78
*380 FILLER_0_4_85
*381 FILLER_0_4_9
*382 FILLER_0_4_97
*383 FILLER_0_5_101
*384 FILLER_0_5_109
*385 FILLER_0_5_113
*386 FILLER_0_5_125
*387 FILLER_0_5_23
*388 FILLER_0_5_53
*389 FILLER_0_5_57
*390 FILLER_0_5_77
*391 FILLER_0_5_89
*392 FILLER_0_6_109
*393 FILLER_0_6_121
*394 FILLER_0_6_127
*395 FILLER_0_6_19
*396 FILLER_0_6_27
*397 FILLER_0_6_29
*398 FILLER_0_6_33
*399 FILLER_0_6_37
*400 FILLER_0_6_49
*401 FILLER_0_6_55
*402 FILLER_0_6_7
*403 FILLER_0_6_80
*404 FILLER_0_6_85
*405 FILLER_0_6_97
*406 FILLER_0_7_103
*407 FILLER_0_7_111
*408 FILLER_0_7_113
*409 FILLER_0_7_125
*410 FILLER_0_7_19
*411 FILLER_0_7_31
*412 FILLER_0_7_40
*413 FILLER_0_7_51
*414 FILLER_0_7_55
*415 FILLER_0_7_57
*416 FILLER_0_7_63
*417 FILLER_0_7_7
*418 FILLER_0_7_72
*419 FILLER_0_7_81
*420 FILLER_0_8_108
*421 FILLER_0_8_120
*422 FILLER_0_8_27
*423 FILLER_0_8_29
*424 FILLER_0_8_35
*425 FILLER_0_8_39
*426 FILLER_0_8_48
*427 FILLER_0_8_55
*428 FILLER_0_8_59
*429 FILLER_0_8_64
*430 FILLER_0_8_71
*431 FILLER_0_8_82
*432 FILLER_0_9_108
*433 FILLER_0_9_113
*434 FILLER_0_9_125
*435 FILLER_0_9_33
*436 FILLER_0_9_41
*437 FILLER_0_9_45
*438 FILLER_0_9_57
*439 FILLER_0_9_79
*440 FILLER_0_9_84
*441 FILLER_0_9_96
*442 PHY_EDGE_ROW_0_Left_22
*443 PHY_EDGE_ROW_0_Right_0
*444 PHY_EDGE_ROW_10_Left_32
*445 PHY_EDGE_ROW_10_Right_10
*446 PHY_EDGE_ROW_11_Left_33
*447 PHY_EDGE_ROW_11_Right_11
*448 PHY_EDGE_ROW_12_Left_34
*449 PHY_EDGE_ROW_12_Right_12
*450 PHY_EDGE_ROW_13_Left_35
*451 PHY_EDGE_ROW_13_Right_13
*452 PHY_EDGE_ROW_14_Left_36
*453 PHY_EDGE_ROW_14_Right_14
*454 PHY_EDGE_ROW_15_Left_37
*455 PHY_EDGE_ROW_15_Right_15
*456 PHY_EDGE_ROW_16_Left_38
*457 PHY_EDGE_ROW_16_Right_16
*458 PHY_EDGE_ROW_17_Left_39
*459 PHY_EDGE_ROW_17_Right_17
*460 PHY_EDGE_ROW_18_Left_40
*461 PHY_EDGE_ROW_18_Right_18
*462 PHY_EDGE_ROW_19_Left_41
*463 PHY_EDGE_ROW_19_Right_19
*464 PHY_EDGE_ROW_1_Left_23
*465 PHY_EDGE_ROW_1_Right_1
*466 PHY_EDGE_ROW_20_Left_42
*467 PHY_EDGE_ROW_20_Right_20
*468 PHY_EDGE_ROW_21_Left_43
*469 PHY_EDGE_ROW_21_Right_21
*470 PHY_EDGE_ROW_2_Left_24
*471 PHY_EDGE_ROW_2_Right_2
*472 PHY_EDGE_ROW_3_Left_25
*473 PHY_EDGE_ROW_3_Right_3
*474 PHY_EDGE_ROW_4_Left_26
*475 PHY_EDGE_ROW_4_Right_4
*476 PHY_EDGE_ROW_5_Left_27
*477 PHY_EDGE_ROW_5_Right_5
*478 PHY_EDGE_ROW_6_Left_28
*479 PHY_EDGE_ROW_6_Right_6
*480 PHY_EDGE_ROW_7_Left_29
*481 PHY_EDGE_ROW_7_Right_7
*482 PHY_EDGE_ROW_8_Left_30
*483 PHY_EDGE_ROW_8_Right_8
*484 PHY_EDGE_ROW_9_Left_31
*485 PHY_EDGE_ROW_9_Right_9
*486 TAP_TAPCELL_ROW_0_44
*487 TAP_TAPCELL_ROW_0_45
*488 TAP_TAPCELL_ROW_0_46
*489 TAP_TAPCELL_ROW_0_47
*490 TAP_TAPCELL_ROW_10_66
*491 TAP_TAPCELL_ROW_10_67
*492 TAP_TAPCELL_ROW_11_68
*493 TAP_TAPCELL_ROW_11_69
*494 TAP_TAPCELL_ROW_12_70
*495 TAP_TAPCELL_ROW_12_71
*496 TAP_TAPCELL_ROW_13_72
*497 TAP_TAPCELL_ROW_13_73
*498 TAP_TAPCELL_ROW_14_74
*499 TAP_TAPCELL_ROW_14_75
*500 TAP_TAPCELL_ROW_15_76
*501 TAP_TAPCELL_ROW_15_77
*502 TAP_TAPCELL_ROW_16_78
*503 TAP_TAPCELL_ROW_16_79
*504 TAP_TAPCELL_ROW_17_80
*505 TAP_TAPCELL_ROW_17_81
*506 TAP_TAPCELL_ROW_18_82
*507 TAP_TAPCELL_ROW_18_83
*508 TAP_TAPCELL_ROW_19_84
*509 TAP_TAPCELL_ROW_19_85
*510 TAP_TAPCELL_ROW_1_48
*511 TAP_TAPCELL_ROW_1_49
*512 TAP_TAPCELL_ROW_20_86
*513 TAP_TAPCELL_ROW_20_87
*514 TAP_TAPCELL_ROW_21_88
*515 TAP_TAPCELL_ROW_21_89
*516 TAP_TAPCELL_ROW_21_90
*517 TAP_TAPCELL_ROW_21_91
*518 TAP_TAPCELL_ROW_2_50
*519 TAP_TAPCELL_ROW_2_51
*520 TAP_TAPCELL_ROW_3_52
*521 TAP_TAPCELL_ROW_3_53
*522 TAP_TAPCELL_ROW_4_54
*523 TAP_TAPCELL_ROW_4_55
*524 TAP_TAPCELL_ROW_5_56
*525 TAP_TAPCELL_ROW_5_57
*526 TAP_TAPCELL_ROW_6_58
*527 TAP_TAPCELL_ROW_6_59
*528 TAP_TAPCELL_ROW_7_60
*529 TAP_TAPCELL_ROW_7_61
*530 TAP_TAPCELL_ROW_8_62
*531 TAP_TAPCELL_ROW_8_63
*532 TAP_TAPCELL_ROW_9_64
*533 TAP_TAPCELL_ROW_9_65
*534 _117_
*535 _118_
*536 _119_
*537 _120_
*538 _121_
*539 _122_
*540 _123_
*541 _124_
*542 _125_
*543 _126_
*544 _127_
*545 _128_
*546 _129_
*547 _130_
*548 _131_
*549 _132_
*550 _133_
*551 _134_
*552 _135_
*553 _136_
*554 _137_
*555 _138_
*556 _139_
*557 _140_
*558 _141_
*559 _142_
*560 _143_
*561 _144_
*562 _145_
*563 _146_
*564 _147_
*565 _148_
*566 _149_
*567 _150_
*568 _151_
*569 _152_
*570 _153_
*571 _154_
*572 _155_
*573 _156_
*574 _157_
*575 _158_
*576 _159_
*577 _160_
*578 _161_
*579 _162_
*580 _163_
*581 _164_
*582 _165_
*583 _166_
*584 _167_
*585 _168_
*586 _169_
*587 _170_
*588 _171_
*589 _172_
*590 _173_
*591 _174_
*592 _175_
*593 _176_
*594 _177_
*595 _178_
*596 _179_
*597 _180_
*598 _181_
*599 _182_
*600 _183_
*601 _184_
*602 _185_
*603 _186_
*604 _187_
*605 _188_
*606 _189_
*607 _190_
*608 _191_
*609 _192_
*610 _193_
*611 _194_
*612 _195_
*613 _196_
*614 _197_
*615 _198_
*616 _199_
*617 _200_
*618 _201_
*619 _202_
*620 _203_
*621 _204_
*622 _205_
*623 _206_
*624 _207_
*625 _208_
*626 _209_
*627 _210_
*628 _211_
*629 _212_
*630 _213_
*631 _214_
*632 _215_
*633 _216_
*634 _217_
*635 _218_
*636 _219_
*637 _220_
*638 _221_
*639 _222_
*640 _223_
*641 _224_
*642 _225_
*643 _226_
*644 _227_
*645 _228_
*646 _229_
*647 _230_
*648 _231_
*649 _232_
*650 _233_
*651 _234_
*652 _235_
*653 _236_
*654 _237_
*655 _238_
*656 _239_
*657 _240_
*658 _241_
*659 _242_
*660 _243_
*661 _244_
*662 _245_
*663 _246_
*664 _247_
*665 _248_
*666 _249_
*667 _250_
*668 _251_
*669 _252_
*670 _253_
*671 _254_
*672 _255_
*673 _256_
*674 _257_
*675 _258_
*676 _259_
*677 _260_
*678 _261_
*679 _262_
*680 _263_
*681 _264_
*682 _265_
*683 _266_
*684 clkbuf_0_clk
*685 clkbuf_1_0__f_clk
*686 clkbuf_1_1__f_clk
*687 clkload0
*688 input1
*689 input2
*690 input3
*691 input4
*692 input5
*693 input6
*694 input7
*695 output10
*696 output11
*697 output12
*698 output13
*699 output14
*700 output15
*701 output16
*702 output17
*703 output18
*704 output8
*705 output9
*706 pmu_fsm_21
*707 wire19
*708 wire20

*PORTS
clk I
clk_gate_en O
clk_stable I
dvfs_ctrl[0] O
dvfs_ctrl[1] O
error O
pwr_gate_en O
pwr_stable I
pwr_state[0] O
pwr_state[1] O
req_idle I
req_off I
req_sleep I
reset_ctrl O
reset_n I
retention_en O
retention_ready I
retention_restore O
retention_save O
seq_busy O
wake_up I

*D_NET *3 0.00899209
*CONN
*P clk I
*I *684:A I *D sky130_fd_sc_hd__clkbuf_16
*CAP
1 clk 0.00348838
2 *684:A 0
3 *3:23 0.000279619
4 *3:13 0.003768
5 *3:13 *630:A 0.00020829
6 *3:13 *644:A 0.000137788
7 *3:13 *644:B 0.000120154
8 *3:13 *672:RESET_B 8.07039e-05
9 *3:13 *17:80 0.000173935
10 *3:13 *52:12 1.27489e-05
11 *3:13 *59:58 9.96931e-05
12 *3:13 *60:10 4.72619e-05
13 *3:13 *61:8 0.000164392
14 *3:13 *159:59 0
15 *3:23 *92:18 0.000360834
16 *3:23 *128:8 5.02846e-05
17 *3:23 *141:33 0
*RES
1 clk *3:13 44.8995 
2 *3:13 *3:23 33.7818 
3 *3:23 *684:A 23 
*END

*D_NET *4 0.0044579
*CONN
*P clk_gate_en O
*I *704:X O *D sky130_fd_sc_hd__buf_4
*CAP
1 clk_gate_en 0.00125882
2 *704:X 0.000578367
3 *4:10 0.00183719
4 clk_gate_en pwr_gate_en 0
5 clk_gate_en *665:RESET_B 0
6 clk_gate_en *679:RESET_B 0
7 clk_gate_en *9:10 0.000393839
8 clk_gate_en *142:45 2.95184e-05
9 clk_gate_en *142:65 0
10 *4:10 *665:RESET_B 0
11 *4:10 *17:160 0
12 *4:10 *24:10 0.000360161
13 *4:10 *142:65 0
14 *4:10 *142:87 0
*RES
1 *704:X *4:10 49.4654 
2 *4:10 clk_gate_en 25.6882 
*END

*D_NET *5 0.000527404
*CONN
*P clk_stable I
*I *688:A I *D sky130_fd_sc_hd__clkbuf_1
*CAP
1 clk_stable 0.000250396
2 *688:A 0.000250396
3 *688:A *158:16 2.66127e-05
*RES
1 clk_stable *688:A 48.0495 
*END

*D_NET *6 0.000615123
*CONN
*P dvfs_ctrl[0] O
*I *706:HI O *D sky130_fd_sc_hd__conb_1
*CAP
1 dvfs_ctrl[0] 0.000307562
2 *706:HI 0.000307562
3 dvfs_ctrl[0] dvfs_ctrl[1] 0
4 dvfs_ctrl[0] reset_ctrl 0
*RES
1 *706:HI dvfs_ctrl[0] 49.8062 
*END

*D_NET *7 0.000726786
*CONN
*P dvfs_ctrl[1] O
*I *705:X O *D sky130_fd_sc_hd__clkbuf_2
*CAP
1 dvfs_ctrl[1] 0.000118537
2 *705:X 0.000244856
3 *7:10 0.000363393
4 dvfs_ctrl[1] pwr_state[0] 0
5 *7:10 *166:10 0
6 dvfs_ctrl[0] dvfs_ctrl[1] 0
*RES
1 *705:X *7:10 42.3811 
2 *7:10 dvfs_ctrl[1] 8.4816 
*END

*D_NET *8 0.00135836
*CONN
*P error O
*I *695:X O *D sky130_fd_sc_hd__clkbuf_2
*CAP
1 error 0.000195626
2 *695:X 0.000421161
3 *8:10 0.000616787
4 error seq_busy 0
5 *8:10 *22:10 0.000124788
*RES
1 *695:X *8:10 47.0418 
2 *8:10 error 8.672 
*END

*D_NET *9 0.00235484
*CONN
*P pwr_gate_en O
*I *696:X O *D sky130_fd_sc_hd__buf_4
*CAP
1 pwr_gate_en 0.000575313
2 *696:X 0.000355095
3 *9:10 0.000930408
4 pwr_gate_en retention_en 0
5 *9:10 *696:A 0.00010018
6 clk_gate_en pwr_gate_en 0
7 clk_gate_en *9:10 0.000393839
*RES
1 *696:X *9:10 46.2546 
2 *9:10 pwr_gate_en 10.0459 
*END

*D_NET *10 0.000523467
*CONN
*P pwr_stable I
*I *689:A I *D sky130_fd_sc_hd__clkbuf_1
*CAP
1 pwr_stable 0.000261734
2 *689:A 0.000261734
*RES
1 pwr_stable *689:A 48.0495 
*END

*D_NET *11 0.000640505
*CONN
*P pwr_state[0] O
*I *697:X O *D sky130_fd_sc_hd__clkbuf_2
*CAP
1 pwr_state[0] 0.000320253
2 *697:X 0.000320253
3 pwr_state[0] pwr_state[1] 0
4 pwr_state[0] *150:10 0
5 dvfs_ctrl[1] pwr_state[0] 0
*RES
1 *697:X pwr_state[0] 49.8426 
*END

*D_NET *12 0.000621217
*CONN
*P pwr_state[1] O
*I *698:X O *D sky130_fd_sc_hd__clkbuf_2
*CAP
1 pwr_state[1] 0.000310608
2 *698:X 0.000310608
3 pwr_state[1] seq_busy 0
4 pwr_state[0] pwr_state[1] 0
*RES
1 *698:X pwr_state[1] 49.8062 
*END

*D_NET *13 0.00115823
*CONN
*P req_idle I
*I *690:A I *D sky130_fd_sc_hd__clkbuf_1
*CAP
1 req_idle 0.000548527
2 *690:A 0.000548527
3 *690:A *679:CLK 6.17437e-06
4 *690:A *679:D 5.50049e-05
*RES
1 req_idle *690:A 49.1857 
*END

*D_NET *14 0.000901742
*CONN
*P req_off I
*I *691:A I *D sky130_fd_sc_hd__clkbuf_1
*CAP
1 req_off 0.000450871
2 *691:A 0.000450871
3 *691:A *676:RESET_B 0
*RES
1 req_off *691:A 47.3214 
*END

*D_NET *15 0.00130404
*CONN
*P req_sleep I
*I *692:A I *D sky130_fd_sc_hd__clkbuf_1
*CAP
1 req_sleep 0.000619612
2 *692:A 0
3 *15:13 0.000619612
4 *15:13 *162:10 6.48142e-05
*RES
1 req_sleep *15:13 41.3721 
2 *15:13 *692:A 38 
*END

*D_NET *16 0.000920838
*CONN
*P reset_ctrl O
*I *699:X O *D sky130_fd_sc_hd__buf_2
*CAP
1 reset_ctrl 0.000118537
2 *699:X 0.000341882
3 *16:10 0.000460419
4 reset_ctrl retention_restore 0
5 *16:10 *152:8 0
6 dvfs_ctrl[0] reset_ctrl 0
*RES
1 *699:X *16:10 42.9818 
2 *16:10 reset_ctrl 8.4816 
*END

*D_NET *17 0.0377334
*CONN
*P reset_n I
*I *659:RESET_B I *D sky130_fd_sc_hd__dfrtp_1
*I *670:RESET_B I *D sky130_fd_sc_hd__dfrtp_1
*I *669:RESET_B I *D sky130_fd_sc_hd__dfrtp_1
*I *668:RESET_B I *D sky130_fd_sc_hd__dfrtp_1
*I *667:RESET_B I *D sky130_fd_sc_hd__dfrtp_1
*I *673:RESET_B I *D sky130_fd_sc_hd__dfrtp_4
*I *675:RESET_B I *D sky130_fd_sc_hd__dfrtp_4
*I *674:RESET_B I *D sky130_fd_sc_hd__dfrtp_1
*I *680:RESET_B I *D sky130_fd_sc_hd__dfrtp_1
*I *677:RESET_B I *D sky130_fd_sc_hd__dfrtp_1
*I *676:RESET_B I *D sky130_fd_sc_hd__dfrtp_1
*I *681:RESET_B I *D sky130_fd_sc_hd__dfrtp_1
*I *682:RESET_B I *D sky130_fd_sc_hd__dfrtp_1
*I *678:RESET_B I *D sky130_fd_sc_hd__dfrtp_1
*I *683:RESET_B I *D sky130_fd_sc_hd__dfrtp_1
*I *679:RESET_B I *D sky130_fd_sc_hd__dfrtp_1
*I *666:RESET_B I *D sky130_fd_sc_hd__dfrtp_1
*I *665:RESET_B I *D sky130_fd_sc_hd__dfrtp_1
*I *656:SET_B I *D sky130_fd_sc_hd__dfstp_1
*I *660:RESET_B I *D sky130_fd_sc_hd__dfrtp_1
*I *672:RESET_B I *D sky130_fd_sc_hd__dfrtp_1
*I *657:RESET_B I *D sky130_fd_sc_hd__dfrtp_1
*I *671:RESET_B I *D sky130_fd_sc_hd__dfrtp_1
*I *658:RESET_B I *D sky130_fd_sc_hd__dfrtp_1
*I *661:RESET_B I *D sky130_fd_sc_hd__dfrtp_1
*I *662:RESET_B I *D sky130_fd_sc_hd__dfrtp_1
*I *663:RESET_B I *D sky130_fd_sc_hd__dfrtp_1
*I *664:RESET_B I *D sky130_fd_sc_hd__dfrtp_1
*CAP
1 reset_n 0.000659066
2 *659:RESET_B 6.50036e-06
3 *670:RESET_B 0
4 *669:RESET_B 0
5 *668:RESET_B 0
6 *667:RESET_B 0
7 *673:RESET_B 0.000588277
8 *675:RESET_B 0.0001286
9 *674:RESET_B 0
10 *680:RESET_B 4.07711e-05
11 *677:RESET_B 0
12 *676:RESET_B 0.000227441
13 *681:RESET_B 0.00042701
14 *682:RESET_B 3.50728e-05
15 *678:RESET_B 1.33896e-05
16 *683:RESET_B 0.000240621
17 *679:RESET_B 0.000262941
18 *666:RESET_B 0.000442297
19 *665:RESET_B 0.000902838
20 *656:SET_B 0.00118033
21 *660:RESET_B 0.000854501
22 *672:RESET_B 0.000465417
23 *657:RESET_B 0.000434597
24 *671:RESET_B 0.000122346
25 *658:RESET_B 0.0008517
26 *661:RESET_B 7.30867e-06
27 *662:RESET_B 0.000681681
28 *663:RESET_B 0.000108416
29 *664:RESET_B 0.000222946
30 *17:287 0.000691141
31 *17:277 0.000754019
32 *17:259 0.000378098
33 *17:257 0.000362032
34 *17:237 0.000821043
35 *17:223 0.000819016
36 *17:203 0.000954271
37 *17:199 0.00122312
38 *17:173 0.00118959
39 *17:160 0.000500869
40 *17:158 0.000672488
41 *17:156 0.00056618
42 *17:154 0.000747817
43 *17:130 0.00178579
44 *17:126 0.00142059
45 *17:80 0.000882482
46 *17:74 0.000984324
47 *17:49 0.00128725
48 *17:37 0.00115846
49 *17:11 0.000448925
50 *17:9 0.00128908
51 *656:SET_B *618:A 0.000110922
52 *656:SET_B *656:D 7.92645e-05
53 *656:SET_B *657:CLK 0.000121021
54 *656:SET_B *51:10 0.000108681
55 *656:SET_B *143:25 0.000166909
56 *656:SET_B *143:33 4.96717e-05
57 *656:SET_B *143:41 2.64616e-05
58 *656:SET_B *159:27 0.000350769
59 *657:RESET_B *28:10 0
60 *657:RESET_B *159:27 0.000132614
61 *657:RESET_B *159:38 0.000224556
62 *658:RESET_B *644:B 6.55412e-05
63 *658:RESET_B *661:D 9.91101e-05
64 *658:RESET_B *143:116 0.000198495
65 *658:RESET_B *157:14 0
66 *659:RESET_B *143:25 2.84479e-05
67 *660:RESET_B *73:8 4.69696e-05
68 *660:RESET_B *74:33 5.21702e-05
69 *660:RESET_B *85:10 4.83192e-05
70 *660:RESET_B *86:10 6.70261e-05
71 *660:RESET_B *143:114 0
72 *660:RESET_B *148:18 0.000375527
73 *660:RESET_B *178:10 6.67212e-05
74 *661:RESET_B *143:116 2.84479e-05
75 *662:RESET_B *143:114 0.000178813
76 *662:RESET_B *178:10 5.12254e-05
77 *663:RESET_B *179:6 0.00014006
78 *664:RESET_B *180:6 5.1357e-05
79 *665:RESET_B *153:10 0
80 *666:RESET_B *26:20 3.22051e-05
81 *666:RESET_B *142:37 0.00026542
82 *666:RESET_B *142:45 0
83 *672:RESET_B *644:B 0
84 *672:RESET_B *143:118 3.17516e-05
85 *672:RESET_B *143:130 6.39935e-05
86 *672:RESET_B *159:59 0
87 *673:RESET_B *605:A1 0.000243268
88 *673:RESET_B *105:14 0
89 *673:RESET_B *106:8 0
90 *673:RESET_B *170:18 0
91 *675:RESET_B *142:185 5.07583e-05
92 *675:RESET_B *146:8 9.36858e-05
93 *675:RESET_B *169:10 2.71586e-05
94 *676:RESET_B *181:10 4.21029e-05
95 *678:RESET_B *26:20 1.53169e-05
96 *678:RESET_B *142:33 4.83893e-05
97 *679:RESET_B *679:CLK 6.61568e-06
98 *679:RESET_B *683:CLK 0.000120857
99 *679:RESET_B *683:D 3.22879e-05
100 *679:RESET_B *142:45 5.23416e-05
101 *681:RESET_B *564:A 6.26126e-05
102 *681:RESET_B *171:10 0.000274366
103 *682:RESET_B *109:10 9.45324e-06
104 *682:RESET_B *171:10 3.7122e-06
105 *683:RESET_B *170:18 6.79813e-05
106 *17:37 *652:A 5.67058e-05
107 *17:37 *652:B 0.000339111
108 *17:37 *74:33 0.000484545
109 *17:37 *79:10 0.000162452
110 *17:37 *143:114 0.00044458
111 *17:49 *143:114 0.000258354
112 *17:49 *143:116 0.000230089
113 *17:49 *177:10 0.000316949
114 *17:74 *72:8 4.94011e-05
115 *17:80 *671:D 5.95521e-05
116 *17:80 *49:22 0.000146043
117 *17:80 *62:10 0.000141347
118 *17:80 *143:57 5.45644e-05
119 *17:126 *59:14 0
120 *17:126 *82:20 9.03979e-05
121 *17:126 *124:10 1.01436e-05
122 *17:126 *148:18 0.000141294
123 *17:126 *176:16 9.48381e-06
124 *17:130 *536:A 2.61526e-05
125 *17:130 *580:B 9.16459e-05
126 *17:130 *82:20 9.84794e-05
127 *17:130 *143:16 0.000272458
128 *17:130 *143:25 0.000201777
129 *17:154 *25:8 0.000360161
130 *17:154 *27:14 0
131 *17:154 *49:22 0
132 *17:154 *138:10 0
133 *17:154 *143:41 0
134 *17:156 *27:14 0
135 *17:156 *138:10 0
136 *17:160 *21:8 0
137 *17:160 *142:87 0
138 *17:173 *665:CLK 3.71251e-05
139 *17:203 *170:18 0
140 *17:223 *183:8 8.21456e-06
141 *17:237 *26:20 4.97675e-05
142 *17:237 *142:31 0.000734763
143 *17:237 *142:33 0.000139357
144 *17:259 *181:10 7.30875e-05
145 *17:277 *181:10 6.63801e-05
146 *17:287 *185:8 7.03766e-05
147 clk_gate_en *665:RESET_B 0
148 clk_gate_en *679:RESET_B 0
149 *691:A *676:RESET_B 0
150 *3:13 *672:RESET_B 8.07039e-05
151 *3:13 *17:80 0.000173935
152 *4:10 *665:RESET_B 0
153 *4:10 *17:160 0
*RES
1 reset_n *17:9 13.6921 
2 *17:9 *17:11 1.90571 
3 *17:11 *664:RESET_B 19.5675 
4 *17:11 *663:RESET_B 16.9782 
5 *17:9 *17:37 30.08 
6 *17:37 *662:RESET_B 1.97821 
7 *662:RESET_B *17:49 12.9982 
8 *17:49 *661:RESET_B 0.548929 
9 *17:49 *658:RESET_B 40.1707 
10 *658:RESET_B *17:74 18.4282 
11 *17:74 *17:80 23.0786 
12 *17:80 *671:RESET_B 1.97821 
13 *17:80 *657:RESET_B 39.6529 
14 *17:74 *672:RESET_B 22.7368 
15 *17:37 *660:RESET_B 43.8786 
16 *660:RESET_B *17:126 35.5204 
17 *17:126 *17:130 16.8407 
18 *17:130 *656:SET_B 42.8946 
19 *656:SET_B *17:154 27.18 
20 *17:154 *17:156 4.01857 
21 *17:156 *17:158 7.54 
22 *17:158 *17:160 5.77929 
23 *17:160 *665:RESET_B 19.0186 
24 *665:RESET_B *17:173 9.76679 
25 *17:173 *666:RESET_B 34.4846 
26 *666:RESET_B *679:RESET_B 36.1211 
27 *17:173 *17:199 18.9564 
28 *17:199 *17:203 4.25679 
29 *17:203 *683:RESET_B 19.3914 
30 *17:203 *17:223 31.9781 
31 *17:223 *678:RESET_B 0.548929 
32 *17:223 *17:237 41.5793 
33 *17:237 *682:RESET_B 0.548929 
34 *17:237 *681:RESET_B 8.81393 
35 *681:RESET_B *17:257 16.0461 
36 *17:257 *17:259 2.96214 
37 *17:259 *676:RESET_B 19.4329 
38 *17:259 *677:RESET_B 15 
39 *17:257 *17:277 3.31429 
40 *17:277 *680:RESET_B 15.5489 
41 *17:277 *17:287 11.4136 
42 *17:287 *674:RESET_B 15 
43 *17:287 *675:RESET_B 17.9311 
44 *17:199 *673:RESET_B 26.7968 
45 *17:160 *667:RESET_B 15 
46 *17:158 *668:RESET_B 15 
47 *17:156 *669:RESET_B 15 
48 *17:154 *670:RESET_B 15 
49 *17:130 *659:RESET_B 0.548929 
*END

*D_NET *18 0.000882978
*CONN
*P retention_en O
*I *700:X O *D sky130_fd_sc_hd__buf_4
*CAP
1 retention_en 0.000118143
2 *700:X 0.000295843
3 *18:10 0.000413986
4 retention_en retention_save 0
5 *18:10 *700:A 5.50049e-05
6 *18:10 *153:10 0
7 pwr_gate_en retention_en 0
*RES
1 *700:X *18:10 43.1061 
2 *18:10 retention_en 8.4816 
*END

*D_NET *19 0.000538827
*CONN
*P retention_ready I
*I *693:A I *D sky130_fd_sc_hd__buf_1
*CAP
1 retention_ready 0.000263042
2 *693:A 0.000263042
3 *693:A *163:10 1.27424e-05
*RES
1 retention_ready *693:A 48.0495 
*END

*D_NET *20 0.000874019
*CONN
*P retention_restore O
*I *701:X O *D sky130_fd_sc_hd__buf_2
*CAP
1 retention_restore 0.00012216
2 *701:X 0.00031485
3 *20:10 0.000437009
4 retention_restore retention_save 0
5 reset_ctrl retention_restore 0
*RES
1 *701:X *20:10 42.6296 
2 *20:10 retention_restore 8.4816 
*END

*D_NET *21 0.000974652
*CONN
*P retention_save O
*I *702:X O *D sky130_fd_sc_hd__buf_2
*CAP
1 retention_save 0.000242232
2 *702:X 0.00022453
3 *21:8 0.000466762
4 *21:8 *155:8 4.11274e-05
5 retention_en retention_save 0
6 retention_restore retention_save 0
7 *17:160 *21:8 0
*RES
1 *702:X *21:8 42.5468 
2 *21:8 retention_save 8.9296 
*END

*D_NET *22 0.00119461
*CONN
*P seq_busy O
*I *703:X O *D sky130_fd_sc_hd__clkbuf_2
*CAP
1 seq_busy 0.00016983
2 *703:X 0.000293255
3 *22:10 0.000463085
4 *22:10 *157:14 0.000143655
5 error seq_busy 0
6 pwr_state[1] seq_busy 0
7 *8:10 *22:10 0.000124788
*RES
1 *703:X *22:10 42.5054 
2 *22:10 seq_busy 8.58613 
*END

*D_NET *23 0.00103091
*CONN
*P wake_up I
*I *694:A I *D sky130_fd_sc_hd__clkbuf_1
*CAP
1 wake_up 0.000500761
2 *694:A 0.000500761
3 *694:A *164:8 2.93845e-05
*RES
1 wake_up *694:A 48.2743 
*END

*D_NET *24 0.00165605
*CONN
*I *665:D I *D sky130_fd_sc_hd__dfrtp_1
*I *605:X O *D sky130_fd_sc_hd__o21a_1
*CAP
1 *665:D 0
2 *605:X 0.000647159
3 *24:10 0.000647159
4 *24:10 *88:12 1.56662e-06
5 *24:10 *142:65 0
6 *24:10 *142:76 0
7 *24:10 *142:87 0
8 *4:10 *24:10 0.000360161
*RES
1 *605:X *24:10 48.585 
2 *24:10 *665:D 38 
*END

*D_NET *25 0.00096015
*CONN
*I *656:D I *D sky130_fd_sc_hd__dfstp_1
*I *607:Y O *D sky130_fd_sc_hd__inv_2
*CAP
1 *656:D 8.84033e-05
2 *607:Y 0.000171959
3 *25:8 0.000260362
4 *25:8 *27:14 0
5 *25:8 *143:41 0
6 *656:SET_B *656:D 7.92645e-05
7 *17:154 *25:8 0.000360161
*RES
1 *607:Y *25:8 42.7229 
2 *25:8 *656:D 40.0507 
*END

*D_NET *26 0.00504684
*CONN
*I *601:A I *D sky130_fd_sc_hd__nand3_1
*I *666:D I *D sky130_fd_sc_hd__dfrtp_1
*I *600:Y O *D sky130_fd_sc_hd__nor2_1
*CAP
1 *601:A 0
2 *666:D 0
3 *600:Y 0.000183346
4 *26:20 0.00117143
5 *26:10 0.0017282
6 *26:8 0.000740117
7 *26:8 *571:A 0.000121793
8 *26:10 *566:A 4.69536e-05
9 *26:10 *43:8 0.000131324
10 *26:10 *90:30 1.22217e-05
11 *26:10 *90:38 0
12 *26:10 *105:14 0
13 *26:10 *108:12 0
14 *26:10 *109:10 0
15 *26:10 *110:10 0.000181943
16 *26:20 *666:CLK 5.79559e-05
17 *26:20 *678:D 0.00026758
18 *26:20 *109:10 0
19 *26:20 *110:10 6.16531e-05
20 *26:20 *142:33 1.49097e-05
21 *26:20 *142:37 2.69729e-05
22 *26:20 *142:120 2.46906e-05
23 *26:20 *142:138 0.000138727
24 *26:20 *162:10 0
25 *26:20 *183:8 3.97296e-05
26 *666:RESET_B *26:20 3.22051e-05
27 *678:RESET_B *26:20 1.53169e-05
28 *17:237 *26:20 4.97675e-05
*RES
1 *600:Y *26:8 40.5271 
2 *26:8 *26:10 10.3571 
3 *26:10 *26:20 34.8857 
4 *26:20 *666:D 23 
5 *26:10 *601:A 38 
*END

*D_NET *27 0.00305702
*CONN
*I *668:D I *D sky130_fd_sc_hd__dfrtp_1
*I *615:X O *D sky130_fd_sc_hd__o211a_1
*CAP
1 *668:D 0
2 *615:X 0.000364163
3 *27:14 0.000920057
4 *27:8 0.00128422
5 *27:14 *614:A1 0
6 *27:14 *46:10 0
7 *27:14 *138:10 9.3813e-05
8 *27:14 *139:8 0.000116314
9 *27:14 *143:41 0.000278447
10 *17:154 *27:14 0
11 *17:156 *27:14 0
12 *25:8 *27:14 0
*RES
1 *615:X *27:8 42.4329 
2 *27:8 *27:14 34.0779 
3 *27:14 *668:D 23 
*END

*D_NET *28 0.000616774
*CONN
*I *657:D I *D sky130_fd_sc_hd__dfrtp_1
*I *627:Y O *D sky130_fd_sc_hd__nor2_1
*CAP
1 *657:D 0
2 *627:Y 0.000301771
3 *28:10 0.000301771
4 *28:10 *627:B 1.32314e-05
5 *28:10 *166:10 0
6 *657:RESET_B *28:10 0
*RES
1 *627:Y *28:10 42.6607 
2 *28:10 *657:D 38 
*END

*D_NET *29 0.000359833
*CONN
*I *658:D I *D sky130_fd_sc_hd__dfrtp_1
*I *631:Y O *D sky130_fd_sc_hd__nor2_1
*CAP
1 *658:D 0
2 *631:Y 0.000144318
3 *29:10 0.000144318
4 *29:10 *631:B 7.61229e-06
5 *29:10 *159:38 4.41821e-06
6 *29:10 *159:59 5.91668e-05
*RES
1 *631:Y *29:10 40.5271 
2 *29:10 *658:D 38 
*END

*D_NET *30 0.00098989
*CONN
*I *659:D I *D sky130_fd_sc_hd__dfrtp_1
*I *636:Y O *D sky130_fd_sc_hd__nor2_1
*CAP
1 *659:D 0.000267596
2 *636:Y 3.89734e-05
3 *30:8 0.000306569
4 *659:D *143:25 0.000204176
5 *30:8 *136:42 8.62876e-05
6 *30:8 *173:43 8.62876e-05
*RES
1 *636:Y *30:8 39.2014 
2 *30:8 *659:D 42.0238 
*END

*D_NET *31 0.00229458
*CONN
*I *660:D I *D sky130_fd_sc_hd__dfrtp_1
*I *640:Y O *D sky130_fd_sc_hd__nor2_1
*CAP
1 *660:D 0.000167276
2 *640:Y 0.000558842
3 *31:8 0.000726118
4 *660:D *86:10 0
5 *660:D *143:80 1.14452e-05
6 *660:D *143:95 0.00031713
7 *31:8 *59:106 5.09988e-05
8 *31:8 *80:10 0.000279219
9 *31:8 *148:18 0.000183547
*RES
1 *640:Y *31:8 46.2443 
2 *31:8 *660:D 42.3707 
*END

*D_NET *32 0.000544781
*CONN
*I *661:D I *D sky130_fd_sc_hd__dfrtp_1
*I *644:Y O *D sky130_fd_sc_hd__nor2_1
*CAP
1 *661:D 0.000101427
2 *644:Y 0.000101427
3 *661:D *644:B 9.41704e-05
4 *661:D *143:116 7.42208e-05
5 *661:D *143:118 7.44257e-05
6 *658:RESET_B *661:D 9.91101e-05
*RES
1 *644:Y *661:D 49.0036 
*END

*D_NET *33 0.000535384
*CONN
*I *662:D I *D sky130_fd_sc_hd__dfrtp_1
*I *649:Y O *D sky130_fd_sc_hd__nor2_1
*CAP
1 *662:D 0
2 *649:Y 0.000170538
3 *33:10 0.000170538
4 *33:10 *649:B 0.000194309
*RES
1 *649:Y *33:10 41.2314 
2 *33:10 *662:D 38 
*END

*D_NET *34 0.000384102
*CONN
*I *663:D I *D sky130_fd_sc_hd__dfrtp_1
*I *653:Y O *D sky130_fd_sc_hd__nor2_1
*CAP
1 *663:D 0.000131971
2 *653:Y 0.000131971
3 *663:D *651:B 6.17437e-06
4 *663:D *179:10 0.000113985
*RES
1 *653:Y *663:D 48.5271 
*END

*D_NET *35 0.000932896
*CONN
*I *664:D I *D sky130_fd_sc_hd__dfrtp_1
*I *655:Y O *D sky130_fd_sc_hd__nor2_1
*CAP
1 *664:D 0
2 *655:Y 0.000340762
3 *35:10 0.000340762
4 *35:10 *538:B 5.481e-05
5 *35:10 *85:10 2.81612e-05
6 *35:10 *143:101 0.000138859
7 *35:10 *179:27 2.95423e-05
*RES
1 *655:Y *35:10 29.5043 
2 *35:10 *664:D 23 
*END

*D_NET *36 0.00166842
*CONN
*I *594:A I *D sky130_fd_sc_hd__nor2_1
*I *593:Y O *D sky130_fd_sc_hd__nand2_1
*CAP
1 *594:A 4.07994e-05
2 *593:Y 0.000481872
3 *36:10 0.000522672
4 *594:A *588:B 9.84851e-05
5 *594:A *595:A 4.37033e-05
6 *594:A *38:10 1.76557e-05
7 *36:10 *544:B 5.50049e-05
8 *36:10 *582:A 4.75206e-05
9 *36:10 *582:C 7.13521e-05
10 *36:10 *583:B 2.62931e-05
11 *36:10 *92:14 2.11066e-05
12 *36:10 *121:10 2.77178e-05
13 *36:10 *125:16 6.5407e-05
14 *36:10 *126:10 1.01131e-05
15 *36:10 *127:10 0.000138718
16 *36:10 *129:10 0
*RES
1 *593:Y *36:10 45.6229 
2 *36:10 *594:A 39.595 
*END

*D_NET *37 0.000229577
*CONN
*I *595:A I *D sky130_fd_sc_hd__nor2_1
*I *594:Y O *D sky130_fd_sc_hd__nor2_1
*CAP
1 *595:A 5.66068e-05
2 *594:Y 5.66068e-05
3 *595:A *588:B 1.76557e-05
4 *595:A *38:10 5.50049e-05
5 *594:A *595:A 4.37033e-05
*RES
1 *594:Y *595:A 47.595 
*END

*D_NET *38 0.00142101
*CONN
*I *621:A I *D sky130_fd_sc_hd__nand3_1
*I *604:A I *D sky130_fd_sc_hd__nand2_1
*I *595:Y O *D sky130_fd_sc_hd__nor2_1
*CAP
1 *621:A 0
2 *604:A 0.000199794
3 *595:Y 0.000240238
4 *38:10 0.000440032
5 *604:A *591:A 4.41821e-06
6 *604:A *145:6 2.10502e-05
7 *604:A *169:10 2.95423e-05
8 *38:10 *591:A 9.81772e-05
9 *38:10 *54:10 0.000139647
10 *38:10 *132:10 0.000175449
11 *594:A *38:10 1.76557e-05
12 *595:A *38:10 5.50049e-05
*RES
1 *595:Y *38:10 44.1729 
2 *38:10 *604:A 41.2314 
3 *38:10 *621:A 38 
*END

*D_NET *39 0.00193785
*CONN
*I *603:A2 I *D sky130_fd_sc_hd__a21oi_1
*I *611:A I *D sky130_fd_sc_hd__or3b_1
*I *596:Y O *D sky130_fd_sc_hd__inv_2
*CAP
1 *603:A2 8.49789e-05
2 *611:A 0.000677278
3 *596:Y 0
4 *39:4 0.000762257
5 *603:A2 *603:B1 1.37232e-05
6 *603:A2 *610:B 1.79293e-05
7 *603:A2 *115:8 4.07902e-05
8 *611:A *570:A 3.22051e-05
9 *611:A *610:B 0.000102248
10 *611:A *48:8 9.8173e-05
11 *611:A *115:8 0.000108268
*RES
1 *596:Y *39:4 23 
2 *39:4 *611:A 35.0764 
3 *39:4 *603:A2 25.0921 
*END

*D_NET *40 0.00392459
*CONN
*I *602:A2 I *D sky130_fd_sc_hd__o211ai_2
*I *606:B I *D sky130_fd_sc_hd__nor2_1
*I *597:Y O *D sky130_fd_sc_hd__nand2_1
*CAP
1 *602:A2 0.000484655
2 *606:B 0
3 *597:Y 0
4 *40:22 0.000263804
5 *40:12 0.000818064
6 *40:4 0.00103892
7 *602:A2 *44:10 5.5792e-05
8 *602:A2 *90:30 0.000174908
9 *602:A2 *144:93 7.38664e-05
10 *40:12 *105:14 1.0092e-05
11 *40:12 *105:36 0.000221667
12 *40:12 *118:14 1.47709e-05
13 *40:12 *144:29 0.000227476
14 *40:22 *606:A 5.47983e-06
15 *40:22 *608:B1 5.56279e-05
16 *40:22 *46:10 2.07484e-05
17 *40:22 *90:57 0.000201193
18 *40:22 *136:14 9.65021e-05
19 *40:22 *144:50 0.000161024
*RES
1 *597:Y *40:4 23 
2 *40:4 *40:12 38.3479 
3 *40:12 *40:22 35.8829 
4 *40:22 *606:B 23 
5 *40:4 *602:A2 30.1879 
*END

*D_NET *41 0.000631598
*CONN
*I *599:A I *D sky130_fd_sc_hd__nand3_1
*I *598:Y O *D sky130_fd_sc_hd__nand2_1
*CAP
1 *599:A 0
2 *598:Y 0.000175288
3 *41:10 0.000175288
4 *41:10 *598:A 8.1796e-05
5 *41:10 *103:17 0.000138145
6 *41:10 *146:78 6.10809e-05
*RES
1 *598:Y *41:10 41.48 
2 *41:10 *599:A 38 
*END

*D_NET *42 0.00180295
*CONN
*I *602:B1 I *D sky130_fd_sc_hd__o211ai_2
*I *599:Y O *D sky130_fd_sc_hd__nand3_1
*CAP
1 *602:B1 0
2 *599:Y 0.000127958
3 *42:18 0.000451956
4 *42:10 0.000579915
5 *42:10 *590:A3 3.6608e-05
6 *42:10 *103:17 4.41821e-06
7 *42:10 *112:6 3.7122e-06
8 *42:18 *563:B 3.673e-05
9 *42:18 *90:20 0.000312459
10 *42:18 *90:30 2.46399e-05
11 *42:18 *113:8 8.57577e-05
12 *42:18 *144:93 8.30041e-05
13 *42:18 *185:27 5.5792e-05
*RES
1 *599:Y *42:10 39.8229 
2 *42:10 *42:18 37.0636 
3 *42:18 *602:B1 38 
*END

*D_NET *43 0.000731598
*CONN
*I *602:C1 I *D sky130_fd_sc_hd__o211ai_2
*I *601:Y O *D sky130_fd_sc_hd__nand3_1
*CAP
1 *602:C1 0
2 *601:Y 0.000198026
3 *43:8 0.000198026
4 *43:8 *563:B 5.92298e-05
5 *43:8 *566:A 4.45778e-05
6 *43:8 *90:30 1.13812e-05
7 *43:8 *108:12 3.96053e-05
8 *43:8 *111:14 4.94281e-05
9 *26:10 *43:8 0.000131324
*RES
1 *601:Y *43:8 42.3707 
2 *43:8 *602:C1 38 
*END

*D_NET *44 0.00331073
*CONN
*I *603:B1 I *D sky130_fd_sc_hd__a21oi_1
*I *622:A I *D sky130_fd_sc_hd__inv_2
*I *602:Y O *D sky130_fd_sc_hd__o211ai_2
*CAP
1 *603:B1 0.00021539
2 *622:A 0.000136057
3 *602:Y 0.000333423
4 *44:10 0.00068487
5 *603:B1 *572:B 2.46384e-05
6 *603:B1 *610:B 0.000145775
7 *603:B1 *45:8 0.000268074
8 *603:B1 *58:10 0.000161121
9 *603:B1 *115:16 0
10 *603:B1 *141:18 0.000154395
11 *622:A *589:A2 2.45549e-06
12 *622:A *589:B1 0.000124874
13 *622:A *133:8 1.358e-05
14 *622:A *146:14 0.000313785
15 *44:10 *572:B 3.32202e-05
16 *44:10 *113:8 7.08123e-05
17 *44:10 *141:18 0.000394674
18 *44:10 *144:93 2.95526e-05
19 *44:10 *146:16 0.000134517
20 *602:A2 *44:10 5.5792e-05
21 *603:A2 *603:B1 1.37232e-05
*RES
1 *602:Y *44:10 46.1614 
2 *44:10 *622:A 41.9771 
3 *44:10 *603:B1 44.815 
*END

*D_NET *45 0.00302157
*CONN
*I *621:C I *D sky130_fd_sc_hd__nand3_1
*I *604:B I *D sky130_fd_sc_hd__nand2_1
*I *603:Y O *D sky130_fd_sc_hd__a21oi_1
*CAP
1 *621:C 1.51302e-05
2 *604:B 0.000137667
3 *603:Y 0.000539899
4 *45:10 0.000248314
5 *45:8 0.000635415
6 *604:B *130:23 0.000110267
7 *604:B *145:23 5.82853e-05
8 *621:C *591:A 5.58003e-05
9 *621:C *146:10 5.58003e-05
10 *45:8 *610:B 7.36732e-05
11 *45:8 *626:A 0.000113092
12 *45:8 *89:12 0.000354122
13 *45:10 *591:A 3.69096e-05
14 *45:10 *130:23 0.000207265
15 *45:10 *135:10 0.000111852
16 *603:B1 *45:8 0.000268074
*RES
1 *603:Y *45:8 48.6264 
2 *45:8 *45:10 2.96214 
3 *45:10 *604:B 40.8793 
4 *45:10 *621:C 38.6214 
*END

*D_NET *46 0.00311214
*CONN
*I *607:A I *D sky130_fd_sc_hd__inv_2
*I *610:A I *D sky130_fd_sc_hd__nor2_1
*I *606:Y O *D sky130_fd_sc_hd__nor2_1
*CAP
1 *607:A 0
2 *610:A 0
3 *606:Y 0.000340148
4 *46:27 0.000627499
5 *46:10 0.000967647
6 *46:10 *48:16 0.000215801
7 *46:10 *88:12 0.000127218
8 *46:10 *88:48 0.000248157
9 *46:27 *613:A2 0
10 *46:27 *613:B1 7.90568e-05
11 *46:27 *87:26 0.000185428
12 *46:27 *88:48 0.000199701
13 *46:27 *100:10 0.000100733
14 *46:27 *156:10 0
15 *27:14 *46:10 0
16 *40:22 *46:10 2.07484e-05
*RES
1 *606:Y *46:10 45.1257 
2 *46:10 *610:A 38 
3 *46:10 *46:27 27.8843 
4 *46:27 *607:A 23 
*END

*D_NET *47 0.00228462
*CONN
*I *613:B1 I *D sky130_fd_sc_hd__a21o_1
*I *611:B I *D sky130_fd_sc_hd__or3b_1
*I *609:Y O *D sky130_fd_sc_hd__nor2_1
*CAP
1 *613:B1 0.000281494
2 *611:B 0
3 *609:Y 0.000349457
4 *47:10 0.000630951
5 *613:B1 *554:A 9.4713e-05
6 *613:B1 *554:B 0.00013501
7 *613:B1 *614:A2 0.000105062
8 *613:B1 *48:16 9.168e-05
9 *613:B1 *100:10 1.58805e-05
10 *613:B1 *100:25 0.000137651
11 *47:10 *614:A1 9.20311e-06
12 *47:10 *614:A2 4.08641e-05
13 *47:10 *48:16 0.000169097
14 *47:10 *144:65 0.000144501
15 *46:27 *613:B1 7.90568e-05
*RES
1 *609:Y *47:10 44.4629 
2 *47:10 *611:B 38 
3 *47:10 *613:B1 45.2914 
*END

*D_NET *48 0.0011322
*CONN
*I *611:C_N I *D sky130_fd_sc_hd__or3b_1
*I *614:B1 I *D sky130_fd_sc_hd__o21ai_1
*I *610:Y O *D sky130_fd_sc_hd__nor2_1
*CAP
1 *611:C_N 0
2 *614:B1 0
3 *610:Y 8.48224e-05
4 *48:16 0.000188135
5 *48:8 0.000272957
6 *48:8 *610:B 4.00259e-06
7 *48:16 *614:A1 0
8 *48:16 *614:A2 7.53384e-06
9 *611:A *48:8 9.8173e-05
10 *613:B1 *48:16 9.168e-05
11 *46:10 *48:16 0.000215801
12 *47:10 *48:16 0.000169097
*RES
1 *610:Y *48:8 24.595 
2 *48:8 *48:16 34.5364 
3 *48:16 *614:B1 23 
4 *48:8 *611:C_N 23 
*END

*D_NET *49 0.00540368
*CONN
*I *612:A I *D sky130_fd_sc_hd__clkbuf_1
*I *611:X O *D sky130_fd_sc_hd__or3b_1
*CAP
1 *612:A 0
2 *611:X 0
3 *49:22 0.00146994
4 *49:6 0.00146994
5 *49:22 *546:B 3.91923e-05
6 *49:22 *613:A2 0.000209796
7 *49:22 *614:A1 5.97612e-05
8 *49:22 *615:A1 0
9 *49:22 *618:A 0.000283769
10 *49:22 *619:B 5.24393e-05
11 *49:22 *52:12 6.7733e-05
12 *49:22 *60:10 0
13 *49:22 *61:8 4.33069e-05
14 *49:22 *62:10 0.000141038
15 *49:22 *137:10 3.16665e-05
16 *49:22 *143:41 0.000802042
17 *49:22 *143:130 3.43965e-05
18 *49:22 *159:27 0.000145936
19 *49:22 *159:38 0.000268364
20 *49:22 *159:59 3.6608e-05
21 *49:22 *173:27 0.000101708
22 *17:80 *49:22 0.000146043
23 *17:154 *49:22 0
*RES
1 *611:X *49:6 38 
2 *49:6 *49:22 49.6757 
3 *49:22 *612:A 23 
*END

*D_NET *50 0.000466856
*CONN
*I *617:B1 I *D sky130_fd_sc_hd__a211oi_1
*I *616:Y O *D sky130_fd_sc_hd__nand2_1
*CAP
1 *617:B1 0.000194566
2 *616:Y 0.000194566
3 *617:B1 *616:A 1.67458e-05
4 *617:B1 *617:A1 1.14762e-05
5 *617:B1 *125:31 1.14154e-05
6 *617:B1 *148:10 3.80863e-05
*RES
1 *616:Y *617:B1 49.19 
*END

*D_NET *51 0.00106552
*CONN
*I *620:A I *D sky130_fd_sc_hd__nand2_1
*I *618:X O *D sky130_fd_sc_hd__or2_1
*CAP
1 *620:A 0
2 *618:X 0.000363354
3 *51:10 0.000363354
4 *51:10 *618:A 3.72175e-05
5 *51:10 *619:B 1.86973e-05
6 *51:10 *627:B 2.35393e-05
7 *51:10 *60:10 3.92407e-05
8 *51:10 *143:33 8.1796e-05
9 *51:10 *143:57 0
10 *51:10 *173:27 2.96369e-05
11 *656:SET_B *51:10 0.000108681
*RES
1 *618:X *51:10 44.6493 
2 *51:10 *620:A 38 
*END

*D_NET *52 0.000871852
*CONN
*I *628:B I *D sky130_fd_sc_hd__or2_1
*I *620:B I *D sky130_fd_sc_hd__nand2_1
*I *629:A I *D sky130_fd_sc_hd__nand2_1
*I *619:Y O *D sky130_fd_sc_hd__nand2_1
*CAP
1 *628:B 0
2 *620:B 5.73214e-05
3 *629:A 0
4 *619:Y 8.78642e-05
5 *52:21 0.00016721
6 *52:12 6.83887e-05
7 *52:6 0.000266142
8 *620:B *53:8 5.38706e-05
9 *620:B *60:10 6.17437e-06
10 *620:B *173:35 2.44913e-05
11 *52:6 *53:8 2.74564e-05
12 *52:12 *60:10 3.24507e-05
13 *3:13 *52:12 1.27489e-05
14 *49:22 *52:12 6.7733e-05
*RES
1 *619:Y *52:6 24.0979 
2 *52:6 *52:12 31.9057 
3 *52:12 *629:A 23 
4 *52:6 *52:21 2.07143 
5 *52:21 *620:B 25.1854 
6 *52:21 *628:B 23 
*END

*D_NET *53 0.000742632
*CONN
*I *627:A I *D sky130_fd_sc_hd__nor2_1
*I *620:Y O *D sky130_fd_sc_hd__nand2_1
*CAP
1 *627:A 0
2 *620:Y 0.000169314
3 *53:8 0.000169314
4 *53:8 *619:A 5.50106e-05
5 *53:8 *627:B 0.000169182
6 *53:8 *173:35 9.84851e-05
7 *620:B *53:8 5.38706e-05
8 *52:6 *53:8 2.74564e-05
*RES
1 *620:Y *53:8 27.4536 
2 *53:8 *627:A 23 
*END

*D_NET *54 0.00146051
*CONN
*I *626:A I *D sky130_fd_sc_hd__nand3_4
*I *621:Y O *D sky130_fd_sc_hd__nand3_1
*CAP
1 *626:A 0.00017649
2 *621:Y 0.000102197
3 *54:10 0.000278688
4 *626:A *592:A 9.41704e-05
5 *626:A *89:12 0.000141954
6 *626:A *131:8 0.000245244
7 *54:10 *589:B1 2.93845e-05
8 *54:10 *591:A 0.000139647
9 *38:10 *54:10 0.000139647
10 *45:8 *626:A 0.000113092
*RES
1 *621:Y *54:10 40.5271 
2 *54:10 *626:A 43.075 
*END

*D_NET *55 0.000598196
*CONN
*I *626:B I *D sky130_fd_sc_hd__nand3_4
*I *622:Y O *D sky130_fd_sc_hd__inv_2
*CAP
1 *626:B 0
2 *622:Y 0.000147721
3 *55:10 0.000147721
4 *55:10 *59:14 1.47563e-05
5 *55:10 *89:8 0.000138718
6 *55:10 *90:87 4.90994e-05
7 *55:10 *133:8 0.00010018
*RES
1 *622:Y *55:10 41.3557 
2 *55:10 *626:B 38 
*END

*D_NET *56 0.00134427
*CONN
*I *625:A I *D sky130_fd_sc_hd__nand2_1
*I *623:Y O *D sky130_fd_sc_hd__nand2_1
*CAP
1 *625:A 0.000305343
2 *623:Y 0.000151295
3 *56:10 0.000456638
4 *625:A *572:A 7.64747e-05
5 *625:A *609:B 0.0002778
6 *625:A *101:33 4.44329e-05
7 *625:A *117:10 1.24376e-05
8 *56:10 *608:B1 6.17437e-06
9 *56:10 *609:A 0
10 *56:10 *57:10 0
11 *56:10 *105:36 3.5781e-06
12 *56:10 *144:50 1.0092e-05
*RES
1 *623:Y *56:10 40.175 
2 *56:10 *625:A 43.4064 
*END

*D_NET *57 0.000577665
*CONN
*I *625:B I *D sky130_fd_sc_hd__nand2_1
*I *624:Y O *D sky130_fd_sc_hd__nand3_1
*CAP
1 *625:B 0
2 *624:Y 0.000166169
3 *57:10 0.000166169
4 *57:10 *624:C 0.000102389
5 *57:10 *101:29 0.000142938
6 *56:10 *57:10 0
*RES
1 *624:Y *57:10 41.0036 
2 *57:10 *625:B 38 
*END

*D_NET *58 0.00124865
*CONN
*I *626:C I *D sky130_fd_sc_hd__nand3_4
*I *625:Y O *D sky130_fd_sc_hd__nand2_1
*CAP
1 *626:C 0
2 *625:Y 0.000295122
3 *58:10 0.000295122
4 *58:10 *572:A 9.67842e-05
5 *58:10 *572:B 0.000132671
6 *58:10 *589:A1 2.97099e-05
7 *58:10 *589:A2 0.000228903
8 *58:10 *115:16 0
9 *58:10 *141:18 9.21347e-06
10 *603:B1 *58:10 0.000161121
*RES
1 *625:Y *58:10 45.5193 
2 *58:10 *626:C 38 
*END

*D_NET *59 0.0157439
*CONN
*I *653:B I *D sky130_fd_sc_hd__nor2_1
*I *655:B I *D sky130_fd_sc_hd__nor2_1
*I *640:B I *D sky130_fd_sc_hd__nor2_1
*I *649:B I *D sky130_fd_sc_hd__nor2_1
*I *644:B I *D sky130_fd_sc_hd__nor2_1
*I *631:B I *D sky130_fd_sc_hd__nor2_1
*I *627:B I *D sky130_fd_sc_hd__nor2_1
*I *636:B I *D sky130_fd_sc_hd__nor2_1
*I *626:Y O *D sky130_fd_sc_hd__nand3_4
*CAP
1 *653:B 0.000224548
2 *655:B 0
3 *640:B 2.01555e-05
4 *649:B 0.00041518
5 *644:B 0.000360005
6 *631:B 0.000254386
7 *627:B 0.000539026
8 *636:B 3.12066e-05
9 *626:Y 0
10 *59:106 0.000586135
11 *59:93 0.000467184
12 *59:58 0.00090382
13 *59:39 0.00131966
14 *59:26 0.00128999
15 *59:18 0.00137059
16 *59:14 0.00129414
17 *59:6 0.00102086
18 *627:B *629:B 2.55642e-05
19 *627:B *60:10 8.72173e-05
20 *627:B *94:12 0.000114083
21 *627:B *173:35 0.000224605
22 *631:B *159:44 0.000187407
23 *640:B *640:A 5.55743e-06
24 *644:B *644:A 8.4047e-05
25 *644:B *143:118 1.57571e-05
26 *649:B *642:A 8.08204e-05
27 *649:B *71:21 0.000303683
28 *649:B *76:8 0.000181034
29 *649:B *177:10 0
30 *653:B *80:10 5.75756e-06
31 *653:B *179:27 0.000166742
32 *59:14 *550:A 4.8643e-05
33 *59:14 *580:B 0.000292325
34 *59:14 *593:B 0
35 *59:14 *617:A1 0
36 *59:14 *82:20 5.93278e-05
37 *59:14 *84:10 6.902e-05
38 *59:14 *87:14 8.51432e-05
39 *59:14 *89:8 1.14452e-05
40 *59:14 *90:87 0
41 *59:14 *90:108 0
42 *59:14 *98:18 0
43 *59:14 *122:26 2.05503e-05
44 *59:14 *123:25 0.000389426
45 *59:14 *124:10 0
46 *59:14 *124:16 0
47 *59:14 *125:31 0
48 *59:14 *131:25 0
49 *59:14 *141:18 8.16253e-05
50 *59:14 *141:33 0.000276291
51 *59:14 *143:16 5.03129e-05
52 *59:14 *176:16 3.64086e-05
53 *59:18 *639:B 0.000100486
54 *59:18 *640:A 9.51377e-05
55 *59:18 *148:18 1.12268e-05
56 *59:26 *578:A 3.84098e-05
57 *59:26 *634:B 0
58 *59:26 *636:A 5.56356e-05
59 *59:26 *638:A 0
60 *59:26 *82:10 0.000105072
61 *59:26 *98:8 0
62 *59:26 *175:34 5.56356e-05
63 *59:26 *175:41 0.00040178
64 *59:39 *535:A 3.22051e-05
65 *59:39 *60:10 4.38756e-05
66 *59:39 *82:10 7.44161e-06
67 *59:39 *173:35 8.99769e-05
68 *59:39 *173:43 4.04643e-05
69 *59:39 *174:14 2.93335e-05
70 *59:58 *629:B 0.000135552
71 *59:58 *630:A 0.00021739
72 *59:58 *60:10 0.000149354
73 *59:58 *143:57 9.47582e-05
74 *59:93 *640:A 2.33782e-05
75 *59:93 *148:18 2.97099e-05
76 *59:106 *80:10 7.7495e-05
77 *59:106 *148:18 5.67018e-05
78 *658:RESET_B *644:B 6.55412e-05
79 *661:D *644:B 9.41704e-05
80 *672:RESET_B *644:B 0
81 *3:13 *644:B 0.000120154
82 *3:13 *59:58 9.96931e-05
83 *17:126 *59:14 0
84 *28:10 *627:B 1.32314e-05
85 *29:10 *631:B 7.61229e-06
86 *31:8 *59:106 5.09988e-05
87 *33:10 *649:B 0.000194309
88 *51:10 *627:B 2.35393e-05
89 *53:8 *627:B 0.000169182
90 *55:10 *59:14 1.47563e-05
*RES
1 *626:Y *59:6 38 
2 *59:6 *59:14 39.1529 
3 *59:14 *59:18 18.48 
4 *59:18 *59:26 29.645 
5 *59:26 *636:B 23.4971 
6 *59:26 *59:39 21.8357 
7 *59:39 *627:B 47.7357 
8 *59:39 *59:58 7.89214 
9 *59:58 *631:B 42.93 
10 *59:58 *644:B 45.1464 
11 *59:18 *649:B 49.0614 
12 *59:14 *59:93 1.57429 
13 *59:93 *640:B 23.4971 
14 *59:93 *59:106 21.6907 
15 *59:106 *655:B 38 
16 *59:106 *653:B 43.0336 
*END

*D_NET *60 0.00391214
*CONN
*I *630:A I *D sky130_fd_sc_hd__nand2_1
*I *634:A I *D sky130_fd_sc_hd__nand2_1
*I *638:B I *D sky130_fd_sc_hd__or2_1
*I *633:B I *D sky130_fd_sc_hd__or2_1
*I *628:X O *D sky130_fd_sc_hd__or2_1
*CAP
1 *630:A 7.49647e-05
2 *634:A 0
3 *638:B 5.94759e-05
4 *633:B 0
5 *628:X 0.000237653
6 *60:22 0.000463607
7 *60:16 0.000800353
8 *60:10 0.00070884
9 *638:B *637:A 0.000147237
10 *60:10 *173:35 0.000179311
11 *60:16 *629:B 9.41704e-05
12 *60:16 *634:B 1.83107e-05
13 *60:22 *633:A 5.52998e-05
14 *60:22 *634:B 1.19428e-05
15 *60:22 *635:A 3.07986e-05
16 *60:22 *635:B 0.000143226
17 *60:22 *637:A 5.56924e-05
18 *620:B *60:10 6.17437e-06
19 *627:B *60:10 8.72173e-05
20 *3:13 *630:A 0.00020829
21 *3:13 *60:10 4.72619e-05
22 *49:22 *60:10 0
23 *51:10 *60:10 3.92407e-05
24 *52:12 *60:10 3.24507e-05
25 *59:39 *60:10 4.38756e-05
26 *59:58 *630:A 0.00021739
27 *59:58 *60:10 0.000149354
*RES
1 *628:X *60:10 43.365 
2 *60:10 *60:16 21.8357 
3 *60:16 *60:22 6.25571 
4 *60:22 *633:B 23 
5 *60:22 *638:B 24.5743 
6 *60:16 *634:A 23 
7 *60:10 *630:A 40.9621 
*END

*D_NET *61 0.000370647
*CONN
*I *630:B I *D sky130_fd_sc_hd__nand2_1
*I *629:Y O *D sky130_fd_sc_hd__nand2_1
*CAP
1 *630:B 0
2 *629:Y 8.14742e-05
3 *61:8 8.14742e-05
4 *3:13 *61:8 0.000164392
5 *49:22 *61:8 4.33069e-05
*RES
1 *629:Y *61:8 40.2579 
2 *61:8 *630:B 38 
*END

*D_NET *62 0.000923285
*CONN
*I *631:A I *D sky130_fd_sc_hd__nor2_1
*I *630:Y O *D sky130_fd_sc_hd__nand2_1
*CAP
1 *631:A 0
2 *630:Y 0.000235983
3 *62:10 0.000235983
4 *62:10 *143:57 2.57686e-05
5 *62:10 *159:38 0.000143166
6 *17:80 *62:10 0.000141347
7 *49:22 *62:10 0.000141038
*RES
1 *630:Y *62:10 42.4329 
2 *62:10 *631:A 38 
*END

*D_NET *63 0.00115525
*CONN
*I *634:B I *D sky130_fd_sc_hd__nand2_1
*I *633:A I *D sky130_fd_sc_hd__or2_1
*I *632:Y O *D sky130_fd_sc_hd__inv_2
*CAP
1 *634:B 0.000242194
2 *633:A 1.59925e-05
3 *632:Y 0.000111872
4 *63:8 0.000370058
5 *633:A *637:A 5.56279e-05
6 *634:B *635:A 3.22051e-05
7 *634:B *635:B 6.06463e-05
8 *634:B *637:A 7.87147e-05
9 *634:B *66:14 0.000102389
10 *63:8 *638:A 0
11 *63:8 *66:14 0
12 *59:26 *634:B 0
13 *60:16 *634:B 1.83107e-05
14 *60:22 *633:A 5.52998e-05
15 *60:22 *634:B 1.19428e-05
*RES
1 *632:Y *63:8 39.5536 
2 *63:8 *633:A 38.6214 
3 *63:8 *634:B 43.5307 
*END

*D_NET *64 0.000974063
*CONN
*I *637:A I *D sky130_fd_sc_hd__nand2_1
*I *635:A I *D sky130_fd_sc_hd__nand2_1
*I *633:X O *D sky130_fd_sc_hd__or2_1
*CAP
1 *637:A 0.00024709
2 *635:A 1.31402e-05
3 *633:X 0
4 *64:4 0.00026023
5 *637:A *68:10 5.33272e-05
6 *633:A *637:A 5.56279e-05
7 *634:B *635:A 3.22051e-05
8 *634:B *637:A 7.87147e-05
9 *638:B *637:A 0.000147237
10 *60:22 *635:A 3.07986e-05
11 *60:22 *637:A 5.56924e-05
*RES
1 *633:X *64:4 23 
2 *64:4 *635:A 23.6214 
3 *64:4 *637:A 29.3386 
*END

*D_NET *65 0.000348417
*CONN
*I *635:B I *D sky130_fd_sc_hd__nand2_1
*I *634:Y O *D sky130_fd_sc_hd__nand2_1
*CAP
1 *635:B 6.77521e-05
2 *634:Y 6.77521e-05
3 *635:B *66:14 9.03964e-06
4 *634:B *635:B 6.06463e-05
5 *60:22 *635:B 0.000143226
*RES
1 *634:Y *635:B 48.8586 
*END

*D_NET *66 0.00118555
*CONN
*I *636:A I *D sky130_fd_sc_hd__nor2_1
*I *635:Y O *D sky130_fd_sc_hd__nand2_1
*CAP
1 *636:A 1.87628e-05
2 *635:Y 0.000337331
3 *66:14 0.000356094
4 *636:A *82:10 2.93431e-05
5 *66:14 *136:42 0.000276952
6 *634:B *66:14 0.000102389
7 *635:B *66:14 9.03964e-06
8 *59:26 *636:A 5.56356e-05
9 *63:8 *66:14 0
*RES
1 *635:Y *66:14 44.0071 
2 *66:14 *636:A 38.6214 
*END

*D_NET *67 0.000551552
*CONN
*I *639:A I *D sky130_fd_sc_hd__nand2_1
*I *637:Y O *D sky130_fd_sc_hd__nand2_1
*CAP
1 *639:A 0
2 *637:Y 0.000222638
3 *67:10 0.000222638
4 *67:10 *637:B 2.10502e-05
5 *67:10 *97:12 1.09834e-05
6 *67:10 *123:25 7.42423e-05
*RES
1 *637:Y *67:10 41.8321 
2 *67:10 *639:A 38 
*END

*D_NET *68 0.00171567
*CONN
*I *641:B I *D sky130_fd_sc_hd__nand2b_1
*I *639:B I *D sky130_fd_sc_hd__nand2_1
*I *638:X O *D sky130_fd_sc_hd__or2_1
*CAP
1 *641:B 0.000295689
2 *639:B 0.00012644
3 *638:X 0.000241776
4 *68:10 0.000663905
5 *639:B *148:18 0.000174908
6 *641:B *642:A 4.2651e-05
7 *641:B *643:B 6.39489e-06
8 *641:B *177:10 1.0092e-05
9 *637:A *68:10 5.33272e-05
10 *59:18 *639:B 0.000100486
*RES
1 *638:X *68:10 41.8321 
2 *68:10 *639:B 41.48 
3 *68:10 *641:B 43.9295 
*END

*D_NET *69 0.000548518
*CONN
*I *640:A I *D sky130_fd_sc_hd__nor2_1
*I *639:Y O *D sky130_fd_sc_hd__nand2_1
*CAP
1 *640:A 9.94341e-05
2 *639:Y 9.94341e-05
3 *640:A *148:18 0.000225576
4 *640:B *640:A 5.55743e-06
5 *59:18 *640:A 9.51377e-05
6 *59:93 *640:A 2.33782e-05
*RES
1 *639:Y *640:A 49.0243 
*END

*D_NET *70 0.000219211
*CONN
*I *643:A I *D sky130_fd_sc_hd__nand2_1
*I *641:Y O *D sky130_fd_sc_hd__nand2b_1
*CAP
1 *643:A 9.39198e-05
2 *641:Y 9.39198e-05
3 *643:A *643:B 2.653e-05
4 *643:A *72:8 4.84129e-06
*RES
1 *641:Y *643:A 48.0714 
*END

*D_NET *71 0.00203064
*CONN
*I *647:A I *D sky130_fd_sc_hd__nand2_1
*I *646:B I *D sky130_fd_sc_hd__nor2_1
*I *643:B I *D sky130_fd_sc_hd__nand2_1
*I *642:Y O *D sky130_fd_sc_hd__nand3_1
*CAP
1 *647:A 7.40093e-05
2 *646:B 0
3 *643:B 0.000281186
4 *642:Y 0
5 *71:21 0.00036182
6 *71:4 0.000568997
7 *643:B *177:21 0.000100486
8 *647:A *646:A 5.50186e-05
9 *647:A *74:10 7.95762e-05
10 *71:21 *537:B 9.66585e-05
11 *71:21 *74:10 2.14486e-05
12 *71:21 *76:8 1.01436e-05
13 *71:21 *177:21 4.46854e-05
14 *641:B *643:B 6.39489e-06
15 *643:A *643:B 2.653e-05
16 *649:B *71:21 0.000303683
*RES
1 *642:Y *71:4 23 
2 *71:4 *643:B 27.3293 
3 *71:4 *71:21 35.5929 
4 *71:21 *646:B 23 
5 *71:21 *647:A 25.5686 
*END

*D_NET *72 0.0020514
*CONN
*I *644:A I *D sky130_fd_sc_hd__nor2_1
*I *643:Y O *D sky130_fd_sc_hd__nand2_1
*CAP
1 *644:A 7.43579e-05
2 *643:Y 0.000804128
3 *72:8 0.000878485
4 *72:8 *174:8 1.83545e-05
5 *643:A *72:8 4.84129e-06
6 *644:B *644:A 8.4047e-05
7 *3:13 *644:A 0.000137788
8 *17:74 *72:8 4.94011e-05
*RES
1 *643:Y *72:8 48.15 
2 *72:8 *644:A 39.9057 
*END

*D_NET *73 0.00094388
*CONN
*I *647:B I *D sky130_fd_sc_hd__nand2_1
*I *646:A I *D sky130_fd_sc_hd__nor2_1
*I *645:Y O *D sky130_fd_sc_hd__inv_2
*CAP
1 *647:B 0
2 *646:A 0.000108881
3 *645:Y 8.09e-05
4 *73:12 0.000283484
5 *73:8 0.000255503
6 *646:A *75:10 9.97435e-06
7 *73:8 *84:10 7.84832e-05
8 *73:12 *75:10 1.84917e-05
9 *73:12 *85:10 6.17437e-06
10 *647:A *646:A 5.50186e-05
11 *660:RESET_B *73:8 4.69696e-05
*RES
1 *645:Y *73:8 40.2579 
2 *73:8 *73:12 18.0036 
3 *73:12 *646:A 25.5686 
4 *73:12 *647:B 23 
*END

*D_NET *74 0.00304663
*CONN
*I *651:A I *D sky130_fd_sc_hd__nand2_1
*I *650:B I *D sky130_fd_sc_hd__or2_1
*I *648:A I *D sky130_fd_sc_hd__or2b_1
*I *646:Y O *D sky130_fd_sc_hd__nor2_1
*CAP
1 *651:A 3.382e-05
2 *650:B 0
3 *648:A 0
4 *646:Y 0.000167624
5 *74:33 0.000296479
6 *74:25 0.000698839
7 *74:14 0.000452416
8 *74:10 0.000251499
9 *74:10 *123:25 3.6608e-05
10 *74:14 *123:25 2.83509e-05
11 *74:25 *537:A 8.26478e-05
12 *74:25 *537:B 2.69767e-05
13 *74:25 *651:B 3.28357e-06
14 *74:25 *84:10 0.000100477
15 *74:25 *123:25 6.17437e-06
16 *74:33 *79:10 0.000223692
17 *74:33 *143:114 0
18 *647:A *74:10 7.95762e-05
19 *660:RESET_B *74:33 5.21702e-05
20 *17:37 *74:33 0.000484545
21 *71:21 *74:10 2.14486e-05
*RES
1 *646:Y *74:10 40.7757 
2 *74:10 *74:14 16.0979 
3 *74:14 *648:A 23 
4 *74:14 *74:25 7.20857 
5 *74:25 *74:33 37.6436 
6 *74:33 *650:B 23 
7 *74:25 *651:A 23.6214 
*END

*D_NET *75 0.000579631
*CONN
*I *648:B_N I *D sky130_fd_sc_hd__or2b_1
*I *647:Y O *D sky130_fd_sc_hd__nand2_1
*CAP
1 *648:B_N 0
2 *647:Y 0.000184796
3 *75:10 0.000184796
4 *75:10 *84:10 2.14486e-05
5 *75:10 *123:25 0.000160125
6 *646:A *75:10 9.97435e-06
7 *73:12 *75:10 1.84917e-05
*RES
1 *647:Y *75:10 41.3557 
2 *75:10 *648:B_N 38 
*END

*D_NET *76 0.000643149
*CONN
*I *649:A I *D sky130_fd_sc_hd__nor2_1
*I *648:X O *D sky130_fd_sc_hd__or2b_1
*CAP
1 *649:A 0
2 *648:X 0.000225986
3 *76:8 0.000225986
4 *649:B *76:8 0.000181034
5 *71:21 *76:8 1.01436e-05
*RES
1 *648:X *76:8 43.075 
2 *76:8 *649:A 38 
*END

*D_NET *77 0.000126903
*CONN
*I *652:A I *D sky130_fd_sc_hd__nand2_1
*I *650:X O *D sky130_fd_sc_hd__or2_1
*CAP
1 *652:A 6.74574e-06
2 *650:X 6.74574e-06
3 *652:A *652:B 5.67058e-05
4 *17:37 *652:A 5.67058e-05
*RES
1 *650:X *652:A 46.6214 
*END

*D_NET *78 0.00322696
*CONN
*I *652:B I *D sky130_fd_sc_hd__nand2_1
*I *654:B I *D sky130_fd_sc_hd__xor2_1
*I *651:Y O *D sky130_fd_sc_hd__nand2_1
*CAP
1 *652:B 0.000323699
2 *654:B 0.000431872
3 *651:Y 0.000216923
4 *78:8 0.000972494
5 *652:B *143:114 0.000147807
6 *654:B *80:10 0.000100477
7 *654:B *143:95 0.000117106
8 *654:B *143:101 0.00021739
9 *654:B *143:114 6.13373e-05
10 *654:B *179:27 6.51997e-06
11 *78:8 *651:B 0.000100477
12 *78:8 *179:10 0.000135037
13 *652:A *652:B 5.67058e-05
14 *17:37 *652:B 0.000339111
*RES
1 *651:Y *78:8 41.0036 
2 *78:8 *654:B 47.3629 
3 *78:8 *652:B 45.6643 
*END

*D_NET *79 0.00136698
*CONN
*I *653:A I *D sky130_fd_sc_hd__nor2_1
*I *652:Y O *D sky130_fd_sc_hd__nand2_1
*CAP
1 *653:A 0
2 *652:Y 0.000404432
3 *79:10 0.000404432
4 *79:10 *143:101 1.13812e-05
5 *79:10 *143:114 0.000123859
6 *79:10 *179:27 3.673e-05
7 *17:37 *79:10 0.000162452
8 *74:33 *79:10 0.000223692
*RES
1 *652:Y *79:10 44.815 
2 *79:10 *653:A 38 
*END

*D_NET *80 0.000998082
*CONN
*I *655:A I *D sky130_fd_sc_hd__nor2_1
*I *654:X O *D sky130_fd_sc_hd__xor2_1
*CAP
1 *655:A 0
2 *654:X 0.000264688
3 *80:10 0.000264688
4 *80:10 *179:27 5.75756e-06
5 *653:B *80:10 5.75756e-06
6 *654:B *80:10 0.000100477
7 *31:8 *80:10 0.000279219
8 *59:106 *80:10 7.7495e-05
*RES
1 *654:X *80:10 44.7943 
2 *80:10 *655:A 38 
*END

*D_NET *81 0.00179624
*CONN
*I *536:A I *D sky130_fd_sc_hd__nand2_1
*I *534:Y O *D sky130_fd_sc_hd__nor2_1
*CAP
1 *536:A 0.000406153
2 *534:Y 0.000103611
3 *81:8 0.000509764
4 *536:A *580:B 0.000392391
5 *536:A *82:20 7.57118e-05
6 *536:A *83:10 5.37348e-06
7 *536:A *98:18 2.93845e-05
8 *536:A *143:16 5.50049e-05
9 *81:8 *580:B 1.69668e-05
10 *81:8 *98:8 0.000110922
11 *81:8 *98:18 6.48049e-05
12 *17:130 *536:A 2.61526e-05
*RES
1 *534:Y *81:8 40.2579 
2 *81:8 *536:A 46.7414 
*END

*D_NET *82 0.00420528
*CONN
*I *579:A I *D sky130_fd_sc_hd__nor2_1
*I *536:B I *D sky130_fd_sc_hd__nand2_1
*I *535:Y O *D sky130_fd_sc_hd__nand2_1
*CAP
1 *579:A 9.19203e-05
2 *536:B 0
3 *535:Y 0.000855198
4 *82:20 0.000269707
5 *82:10 0.00121683
6 *579:A *122:26 1.32314e-05
7 *579:A *176:8 2.93845e-05
8 *579:A *176:16 5.50049e-05
9 *82:10 *578:A 3.69811e-05
10 *82:10 *94:6 0.000145548
11 *82:10 *122:10 0.000230604
12 *82:10 *173:43 0.000188927
13 *82:10 *175:34 2.93431e-05
14 *82:10 *175:41 0.000116151
15 *82:10 *176:16 9.76261e-05
16 *82:20 *580:B 0.000223704
17 *82:20 *124:10 0.000139352
18 *536:A *82:20 7.57118e-05
19 *636:A *82:10 2.93431e-05
20 *17:126 *82:20 9.03979e-05
21 *17:130 *82:20 9.84794e-05
22 *59:14 *82:20 5.93278e-05
23 *59:26 *82:10 0.000105072
24 *59:39 *82:10 7.44161e-06
*RES
1 *535:Y *82:10 39.5093 
2 *82:10 *82:20 37.0636 
3 *82:20 *536:B 23 
4 *82:10 *579:A 25.2993 
*END

*D_NET *83 0.00101045
*CONN
*I *540:A I *D sky130_fd_sc_hd__nor2_1
*I *576:A1 I *D sky130_fd_sc_hd__o21bai_1
*I *536:Y O *D sky130_fd_sc_hd__nand2_1
*CAP
1 *540:A 0
2 *576:A1 0.000160936
3 *536:Y 0.000244444
4 *83:10 0.00040538
5 *576:A1 *87:44 0
6 *576:A1 *125:16 0
7 *576:A1 *129:10 0.000194318
8 *83:10 *86:12 0
9 *536:A *83:10 5.37348e-06
*RES
1 *536:Y *83:10 41.48 
2 *83:10 *576:A1 41.3143 
3 *83:10 *540:A 38 
*END

*D_NET *84 0.00179591
*CONN
*I *539:A I *D sky130_fd_sc_hd__nand2_1
*I *551:A I *D sky130_fd_sc_hd__nand3_1
*I *537:Y O *D sky130_fd_sc_hd__nor2_1
*CAP
1 *539:A 0
2 *551:A 0.000121448
3 *537:Y 0.00043619
4 *84:12 0.000121448
5 *84:10 0.00043619
6 *551:A *551:B 0.000111985
7 *551:A *97:12 0.000112637
8 *84:10 *550:A 1.13812e-05
9 *84:10 *85:10 0.000175202
10 *59:14 *84:10 6.902e-05
11 *73:8 *84:10 7.84832e-05
12 *74:25 *84:10 0.000100477
13 *75:10 *84:10 2.14486e-05
*RES
1 *537:Y *84:10 46.99 
2 *84:10 *84:12 15 
3 *84:12 *551:A 26.045 
4 *84:12 *539:A 23 
*END

*D_NET *85 0.0022309
*CONN
*I *551:B I *D sky130_fd_sc_hd__nand3_1
*I *539:B I *D sky130_fd_sc_hd__nand2_1
*I *538:Y O *D sky130_fd_sc_hd__nor2_1
*CAP
1 *551:B 0.000214635
2 *539:B 0
3 *538:Y 0.000633434
4 *85:12 0.000214635
5 *85:10 0.000633434
6 *551:B *86:10 2.10502e-05
7 *551:B *97:12 2.30289e-05
8 *85:10 *148:18 8.82154e-05
9 *85:10 *179:27 3.26241e-05
10 *551:A *551:B 0.000111985
11 *660:RESET_B *85:10 4.83192e-05
12 *35:10 *85:10 2.81612e-05
13 *73:12 *85:10 6.17437e-06
14 *84:10 *85:10 0.000175202
*RES
1 *538:Y *85:10 48.4607 
2 *85:10 *85:12 15 
3 *85:12 *539:B 23 
4 *85:12 *551:B 27.4743 
*END

*D_NET *86 0.00293001
*CONN
*I *580:A I *D sky130_fd_sc_hd__nor2_1
*I *540:B I *D sky130_fd_sc_hd__nor2_1
*I *576:A2 I *D sky130_fd_sc_hd__o21bai_1
*I *539:Y O *D sky130_fd_sc_hd__nand2_1
*CAP
1 *580:A 0
2 *540:B 9.44227e-05
3 *576:A2 0.000199337
4 *539:Y 0.000474217
5 *86:12 0.000507612
6 *86:10 0.00068807
7 *540:B *87:6 2.18506e-05
8 *540:B *87:14 4.67488e-05
9 *540:B *87:44 5.50106e-05
10 *540:B *125:8 4.28695e-05
11 *540:B *125:31 5.3304e-05
12 *540:B *129:10 5.67058e-05
13 *576:A2 *576:B1_N 1.14154e-05
14 *576:A2 *577:A 1.91381e-05
15 *576:A2 *617:A2 2.93747e-05
16 *576:A2 *119:12 0.000122031
17 *576:A2 *125:16 0.000192087
18 *576:A2 *148:10 0
19 *576:A2 *148:18 5.93381e-05
20 *86:10 *148:18 7.53189e-05
21 *86:12 *125:16 3.47781e-05
22 *86:12 *148:18 5.83085e-05
23 *551:B *86:10 2.10502e-05
24 *660:D *86:10 0
25 *660:RESET_B *86:10 6.70261e-05
26 *83:10 *86:12 0
*RES
1 *539:Y *86:10 46.0786 
2 *86:10 *86:12 2.96214 
3 *86:12 *576:A2 43.3029 
4 *86:12 *540:B 40.5479 
5 *86:10 *580:A 38 
*END

*D_NET *87 0.00505565
*CONN
*I *585:B I *D sky130_fd_sc_hd__nor2_1
*I *615:C1 I *D sky130_fd_sc_hd__o211a_1
*I *546:A I *D sky130_fd_sc_hd__nand2_1
*I *540:Y O *D sky130_fd_sc_hd__nor2_1
*CAP
1 *585:B 0
2 *615:C1 0
3 *546:A 0
4 *540:Y 6.1379e-05
5 *87:44 7.15447e-05
6 *87:26 0.000374405
7 *87:16 0.00120072
8 *87:14 0.00133525
9 *87:6 0.000641852
10 *87:6 *129:10 5.67058e-05
11 *87:14 *124:10 0
12 *87:14 *125:31 0.000135465
13 *87:14 *143:16 1.32289e-05
14 *87:16 *615:A2 0.000228558
15 *87:16 *615:B1 0.000212703
16 *87:26 *615:A2 5.56356e-05
17 *87:26 *615:B1 5.56356e-05
18 *87:26 *100:10 7.61508e-05
19 *87:44 *125:8 5.50106e-05
20 *87:44 *125:16 8.72173e-05
21 *540:B *87:6 2.18506e-05
22 *540:B *87:14 4.67488e-05
23 *540:B *87:44 5.50106e-05
24 *576:A1 *87:44 0
25 *46:27 *87:26 0.000185428
26 *59:14 *87:14 8.51432e-05
*RES
1 *540:Y *87:6 24.0979 
2 *87:6 *87:14 37.6436 
3 *87:14 *87:16 14.9143 
4 *87:16 *87:26 37.6643 
5 *87:26 *546:A 23 
6 *87:16 *615:C1 23 
7 *87:6 *87:44 31.8229 
8 *87:44 *585:B 23 
*END

*D_NET *88 0.0108084
*CONN
*I *597:A I *D sky130_fd_sc_hd__nand2_1
*I *605:B1 I *D sky130_fd_sc_hd__o21a_1
*I *569:B I *D sky130_fd_sc_hd__nor2_1
*I *557:A I *D sky130_fd_sc_hd__nor2_1
*I *590:B1 I *D sky130_fd_sc_hd__o311a_1
*I *542:B I *D sky130_fd_sc_hd__nor2_1
*I *541:Y O *D sky130_fd_sc_hd__inv_6
*CAP
1 *597:A 0
2 *605:B1 5.68368e-05
3 *569:B 0.000143477
4 *557:A 0
5 *590:B1 0.0004189
6 *542:B 1.75319e-05
7 *541:Y 0
8 *88:85 0.000489144
9 *88:48 0.000500431
10 *88:18 0.00227648
11 *88:12 0.00279398
12 *88:6 0.000818435
13 *88:4 0.000653762
14 *542:B *89:8 1.05441e-05
15 *542:B *90:87 3.34818e-06
16 *542:B *144:111 5.09387e-06
17 *569:B *90:99 2.87709e-05
18 *569:B *102:16 8.89078e-05
19 *569:B *114:8 4.90429e-06
20 *569:B *156:10 8.15864e-05
21 *590:B1 *559:B1 0.000330232
22 *590:B1 *590:C1 5.3304e-05
23 *590:B1 *90:10 0.000108713
24 *590:B1 *90:87 0.000159201
25 *590:B1 *101:29 0.000140875
26 *590:B1 *144:93 4.69387e-05
27 *590:B1 *144:111 2.21954e-05
28 *88:6 *605:A2 0.000146822
29 *88:12 *144:65 0
30 *88:18 *146:33 0.000212374
31 *88:48 *90:99 0
32 *88:48 *102:16 0
33 *88:48 *144:65 0
34 *88:85 *605:A2 4.21048e-05
35 *88:85 *90:38 0.000403013
36 *88:85 *105:14 7.61276e-05
37 *88:85 *144:15 5.56356e-05
38 *88:85 *144:93 4.21048e-05
39 *24:10 *88:12 1.56662e-06
40 *46:10 *88:12 0.000127218
41 *46:10 *88:48 0.000248157
42 *46:27 *88:48 0.000199701
*RES
1 *541:Y *88:4 23 
2 *88:4 *88:6 2.52714 
3 *88:6 *88:12 26.2789 
4 *88:12 *88:18 19.1472 
5 *88:18 *542:B 38.3211 
6 *88:18 *590:B1 48.4089 
7 *88:12 *88:48 22.5296 
8 *88:48 *557:A 23 
9 *88:48 *569:B 27.2879 
10 *88:6 *605:B1 24.2014 
11 *88:4 *88:85 38.265 
12 *88:85 *597:A 23 
*END

*D_NET *89 0.00299646
*CONN
*I *587:A I *D sky130_fd_sc_hd__and2_1
*I *616:A I *D sky130_fd_sc_hd__nand2_1
*I *544:A I *D sky130_fd_sc_hd__nand2_1
*I *542:Y O *D sky130_fd_sc_hd__nor2_1
*CAP
1 *587:A 0
2 *616:A 0.00034846
3 *544:A 0
4 *542:Y 0.000121486
5 *89:16 0.000712029
6 *89:12 0.000456175
7 *89:8 0.000214092
8 *616:A *617:A1 0.000139352
9 *616:A *91:12 2.33476e-05
10 *616:A *124:16 4.62967e-05
11 *616:A *125:16 2.96323e-05
12 *616:A *125:31 8.0163e-06
13 *89:8 *90:87 0
14 *89:8 *141:18 5.17737e-05
15 *89:8 *144:111 1.05441e-05
16 *89:12 *610:B 7.44257e-05
17 *89:12 *131:8 3.75171e-05
18 *89:16 *591:A 0
19 *89:16 *90:87 0
20 *89:16 *90:108 0
21 *89:16 *124:16 6.07611e-06
22 *89:16 *126:10 2.78332e-05
23 *89:16 *127:10 0
24 *89:16 *130:23 1.58805e-05
25 *542:B *89:8 1.05441e-05
26 *617:B1 *616:A 1.67458e-05
27 *626:A *89:12 0.000141954
28 *45:8 *89:12 0.000354122
29 *55:10 *89:8 0.000138718
30 *59:14 *89:8 1.14452e-05
*RES
1 *542:Y *89:8 40.9621 
2 *89:8 *89:12 18.9564 
3 *89:12 *89:16 21.1314 
4 *89:16 *544:A 38 
5 *89:16 *616:A 43.7586 
6 *89:12 *587:A 23 
*END

*D_NET *90 0.012554
*CONN
*I *617:A1 I *D sky130_fd_sc_hd__a211oi_1
*I *544:B I *D sky130_fd_sc_hd__nand2_1
*I *569:A I *D sky130_fd_sc_hd__nor2_1
*I *590:C1 I *D sky130_fd_sc_hd__o311a_1
*I *563:B I *D sky130_fd_sc_hd__nor2_1
*I *597:B I *D sky130_fd_sc_hd__nand2_1
*I *608:A2 I *D sky130_fd_sc_hd__a21oi_1
*I *605:A2 I *D sky130_fd_sc_hd__o21a_1
*I *543:X O *D sky130_fd_sc_hd__clkbuf_2
*CAP
1 *617:A1 0.000209356
2 *544:B 7.412e-05
3 *569:A 0
4 *590:C1 2.32701e-05
5 *563:B 0.000102497
6 *597:B 0
7 *608:A2 0
8 *605:A2 3.82255e-05
9 *543:X 0.000214542
10 *90:108 0.000452042
11 *90:99 0.000990178
12 *90:87 0.00165643
13 *90:57 0.000453639
14 *90:38 0.000827532
15 *90:30 0.000518291
16 *90:20 0.00047674
17 *90:10 0.000302191
18 *90:8 0.000799532
19 *544:B *582:A 4.46576e-05
20 *563:B *108:12 6.1062e-05
21 *563:B *111:14 4.67137e-05
22 *563:B *113:8 3.12814e-05
23 *590:C1 *144:93 5.3304e-05
24 *605:A2 *605:A1 0.000146822
25 *617:A1 *124:16 6.68793e-05
26 *617:A1 *148:10 2.93845e-05
27 *90:8 *142:6 3.26241e-05
28 *90:10 *559:B1 4.16878e-06
29 *90:10 *146:72 0.000246023
30 *90:20 *559:B1 2.58781e-05
31 *90:20 *144:93 0.000350832
32 *90:20 *146:72 4.44225e-05
33 *90:30 *144:93 0.000320097
34 *90:38 *541:A 0.000225441
35 *90:38 *605:A1 8.55793e-05
36 *90:38 *105:14 9.28012e-05
37 *90:57 *605:A1 0.000201309
38 *90:57 *136:14 2.05503e-05
39 *90:57 *144:50 6.62564e-05
40 *90:87 *130:23 0
41 *90:87 *131:25 0.000136486
42 *90:87 *134:10 1.61983e-05
43 *90:87 *146:72 0.000313135
44 *90:99 *570:A 7.35193e-06
45 *90:99 *588:B 1.59094e-05
46 *90:99 *102:16 8.76184e-05
47 *90:99 *114:8 9.03364e-06
48 *90:99 *141:8 0.000308946
49 *90:108 *593:B 0.000193108
50 *90:108 *124:16 1.83564e-05
51 *90:108 *131:25 8.02348e-05
52 *542:B *90:87 3.34818e-06
53 *569:B *90:99 2.87709e-05
54 *590:B1 *590:C1 5.3304e-05
55 *590:B1 *90:10 0.000108713
56 *590:B1 *90:87 0.000159201
57 *602:A2 *90:30 0.000174908
58 *616:A *617:A1 0.000139352
59 *617:B1 *617:A1 1.14762e-05
60 *26:10 *90:30 1.22217e-05
61 *26:10 *90:38 0
62 *36:10 *544:B 5.50049e-05
63 *40:22 *90:57 0.000201193
64 *42:18 *563:B 3.673e-05
65 *42:18 *90:20 0.000312459
66 *42:18 *90:30 2.46399e-05
67 *43:8 *563:B 5.92298e-05
68 *43:8 *90:30 1.13812e-05
69 *55:10 *90:87 4.90994e-05
70 *59:14 *617:A1 0
71 *59:14 *90:87 0
72 *59:14 *90:108 0
73 *88:6 *605:A2 0.000146822
74 *88:48 *90:99 0
75 *88:85 *605:A2 4.21048e-05
76 *88:85 *90:38 0.000403013
77 *89:8 *90:87 0
78 *89:16 *90:87 0
79 *89:16 *90:108 0
*RES
1 *543:X *90:8 41.0036 
2 *90:8 *90:10 3.31429 
3 *90:10 *90:20 35.4271 
4 *90:20 *90:30 20.5721 
5 *90:30 *90:38 38.9486 
6 *90:38 *605:A2 25.0507 
7 *90:38 *90:57 40.1086 
8 *90:57 *608:A2 23 
9 *90:30 *597:B 23 
10 *90:20 *563:B 40.61 
11 *90:10 *590:C1 38.6214 
12 *90:8 *90:87 10.3571 
13 *90:87 *90:99 46.8821 
14 *90:99 *569:A 38 
15 *90:87 *90:108 4.01857 
16 *90:108 *544:B 39.595 
17 *90:108 *617:A1 42.5779 
*END

*D_NET *91 0.00109182
*CONN
*I *545:A I *D sky130_fd_sc_hd__inv_2
*I *544:Y O *D sky130_fd_sc_hd__nand2_1
*CAP
1 *545:A 8.48803e-06
2 *544:Y 0.000300626
3 *91:12 0.000309114
4 *545:A *121:10 2.33476e-05
5 *545:A *129:10 2.33476e-05
6 *91:12 *92:14 0.000121324
7 *91:12 *92:18 0.000259111
8 *91:12 *124:16 2.31116e-05
9 *616:A *91:12 2.33476e-05
*RES
1 *544:Y *91:12 47.1499 
2 *91:12 *545:A 46.3211 
*END

*D_NET *92 0.00651954
*CONN
*I *577:B I *D sky130_fd_sc_hd__nand2_1
*I *582:C I *D sky130_fd_sc_hd__nand3_1
*I *546:B I *D sky130_fd_sc_hd__nand2_1
*I *613:A2 I *D sky130_fd_sc_hd__a21o_1
*I *545:Y O *D sky130_fd_sc_hd__inv_2
*CAP
1 *577:B 0
2 *582:C 5.44318e-05
3 *546:B 2.95584e-05
4 *613:A2 7.30114e-05
5 *545:Y 0
6 *92:55 0.000291349
7 *92:18 0.00209487
8 *92:14 0.00221832
9 *92:4 0.000462936
10 *582:C *125:16 9.28078e-06
11 *582:C *126:10 8.21456e-06
12 *613:A2 *614:A1 3.70094e-05
13 *613:A2 *93:8 0.000131744
14 *92:14 *127:10 7.53384e-06
15 *92:14 *129:10 4.35681e-06
16 *92:18 *136:42 1.42045e-05
17 *92:55 *129:10 0
18 *3:23 *92:18 0.000360834
19 *36:10 *582:C 7.13521e-05
20 *36:10 *92:14 2.11066e-05
21 *46:27 *613:A2 0
22 *49:22 *546:B 3.91923e-05
23 *49:22 *613:A2 0.000209796
24 *91:12 *92:14 0.000121324
25 *91:12 *92:18 0.000259111
*RES
1 *545:Y *92:4 23 
2 *92:4 *92:14 25.1231 
3 *92:14 *92:18 12.6928 
4 *92:18 *613:A2 40.7861 
5 *92:18 *546:B 38.6732 
6 *92:14 *582:C 47.0254 
7 *92:4 *92:55 35.0129 
8 *92:55 *577:B 23 
*END

*D_NET *93 0.00228536
*CONN
*I *554:A I *D sky130_fd_sc_hd__nor2_1
*I *614:A1 I *D sky130_fd_sc_hd__o21ai_1
*I *546:Y O *D sky130_fd_sc_hd__nand2_1
*CAP
1 *554:A 0.000269194
2 *614:A1 0.000273588
3 *546:Y 4.38123e-05
4 *93:8 0.000586595
5 *554:A *554:B 0.000152349
6 *554:A *138:10 1.76557e-05
7 *614:A1 *614:A2 0.000329473
8 *614:A1 *669:CLK 4.08219e-05
9 *614:A1 *100:10 7.70737e-05
10 *614:A1 *143:41 2.04774e-05
11 *93:8 *100:10 0.000141888
12 *613:A2 *614:A1 3.70094e-05
13 *613:A2 *93:8 0.000131744
14 *613:B1 *554:A 9.4713e-05
15 *27:14 *614:A1 0
16 *47:10 *614:A1 9.20311e-06
17 *48:16 *614:A1 0
18 *49:22 *614:A1 5.97612e-05
*RES
1 *546:Y *93:8 39.9057 
2 *93:8 *614:A1 45.3743 
3 *93:8 *554:A 43.4064 
*END

*D_NET *94 0.00406062
*CONN
*I *549:A I *D sky130_fd_sc_hd__nand2_1
*I *615:A1 I *D sky130_fd_sc_hd__o211a_1
*I *629:B I *D sky130_fd_sc_hd__nand2_1
*I *628:A I *D sky130_fd_sc_hd__or2_1
*I *547:Y O *D sky130_fd_sc_hd__inv_2
*CAP
1 *549:A 0.000222592
2 *615:A1 0.000281782
3 *629:B 0.000173879
4 *628:A 0
5 *547:Y 0.000275816
6 *94:34 0.000677594
7 *94:12 0.000301583
8 *94:6 0.000576738
9 *549:A *549:B 5.47983e-06
10 *549:A *618:A 6.17437e-06
11 *549:A *708:A 5.58012e-05
12 *549:A *159:10 8.68427e-06
13 *615:A1 *143:33 6.48142e-05
14 *615:A1 *156:10 0
15 *615:A1 *159:10 4.68476e-05
16 *615:A1 *159:27 2.60152e-05
17 *629:B *143:57 0.000162418
18 *94:6 *173:35 9.52122e-05
19 *94:6 *173:43 2.36123e-05
20 *94:12 *143:57 0.000114083
21 *94:12 *173:35 9.41704e-05
22 *94:34 *143:33 0.000151907
23 *94:34 *143:57 0.000139647
24 *94:34 *159:27 4.08537e-05
25 *94:34 *173:43 0
26 *627:B *629:B 2.55642e-05
27 *627:B *94:12 0.000114083
28 *49:22 *615:A1 0
29 *59:58 *629:B 0.000135552
30 *60:16 *629:B 9.41704e-05
31 *82:10 *94:6 0.000145548
*RES
1 *547:Y *94:6 26.9564 
2 *94:6 *94:12 17.6514 
3 *94:12 *628:A 38 
4 *94:12 *629:B 41.8321 
5 *94:6 *94:34 19.0186 
6 *94:34 *615:A1 42.64 
7 *94:34 *549:A 41.9979 
*END

*D_NET *95 0.000236489
*CONN
*I *549:B I *D sky130_fd_sc_hd__nand2_1
*I *548:Y O *D sky130_fd_sc_hd__inv_2
*CAP
1 *549:B 6.90114e-05
2 *548:Y 6.90114e-05
3 *549:B *708:A 1.24376e-05
4 *549:B *96:8 5.40876e-05
5 *549:B *99:10 2.64616e-05
6 *549:A *549:B 5.47983e-06
*RES
1 *548:Y *549:B 47.595 
*END

*D_NET *96 0.00117143
*CONN
*I *584:A2 I *D sky130_fd_sc_hd__a21oi_1
*I *552:B I *D sky130_fd_sc_hd__or3_1
*I *549:Y O *D sky130_fd_sc_hd__nand2_1
*CAP
1 *584:A2 0
2 *552:B 0.000103857
3 *549:Y 0.000383657
4 *96:8 0.000487515
5 *96:8 *708:A 1.46205e-05
6 *96:8 *98:32 6.6426e-05
7 *96:8 *99:10 6.12628e-05
8 *549:B *96:8 5.40876e-05
*RES
1 *549:Y *96:8 30.3121 
2 *96:8 *552:B 24.8229 
3 *96:8 *584:A2 23 
*END

*D_NET *97 0.000617658
*CONN
*I *551:C I *D sky130_fd_sc_hd__nand3_1
*I *637:B I *D sky130_fd_sc_hd__nand2_1
*I *550:Y O *D sky130_fd_sc_hd__inv_2
*CAP
1 *551:C 0
2 *637:B 2.06094e-05
3 *550:Y 0.00020437
4 *97:12 0.000224979
5 *551:A *97:12 0.000112637
6 *551:B *97:12 2.30289e-05
7 *67:10 *637:B 2.10502e-05
8 *67:10 *97:12 1.09834e-05
*RES
1 *550:Y *97:12 26.6664 
2 *97:12 *637:B 23.6214 
3 *97:12 *551:C 23 
*END

*D_NET *98 0.00233732
*CONN
*I *584:B1 I *D sky130_fd_sc_hd__a21oi_1
*I *552:C I *D sky130_fd_sc_hd__or3_1
*I *551:Y O *D sky130_fd_sc_hd__nand3_1
*CAP
1 *584:B1 0
2 *552:C 0
3 *551:Y 0.000208336
4 *98:32 0.000204883
5 *98:20 0.00034433
6 *98:18 0.000385159
7 *98:8 0.000454048
8 *98:8 *580:B 0.000103087
9 *98:8 *122:10 0
10 *98:8 *123:25 3.13359e-05
11 *98:8 *175:51 2.5343e-05
12 *98:18 *580:B 0
13 *98:18 *143:16 8.09767e-05
14 *98:20 *141:33 0.000187129
15 *98:32 *584:A1 1.16659e-05
16 *98:32 *175:8 2.94915e-05
17 *536:A *98:18 2.93845e-05
18 *59:14 *98:18 0
19 *59:26 *98:8 0
20 *81:8 *98:8 0.000110922
21 *81:8 *98:18 6.48049e-05
22 *96:8 *98:32 6.6426e-05
*RES
1 *551:Y *98:8 42.0186 
2 *98:8 *98:18 49.4121 
3 *98:18 *98:20 3.00357 
4 *98:20 *98:32 33.5421 
5 *98:32 *552:C 23 
6 *98:20 *584:B1 23 
*END

*D_NET *99 0.00182416
*CONN
*I *553:A I *D sky130_fd_sc_hd__inv_2
*I *552:X O *D sky130_fd_sc_hd__or3_1
*CAP
1 *553:A 0.000130279
2 *552:X 0.000406874
3 *99:10 0.000537153
4 *99:10 *615:A2 0.000139647
5 *99:10 *615:B1 0.000165973
6 *99:10 *136:42 1.33431e-05
7 *99:10 *156:10 0.000343168
8 *549:B *99:10 2.64616e-05
9 *96:8 *99:10 6.12628e-05
*RES
1 *552:X *99:10 46.2029 
2 *99:10 *553:A 40.0507 
*END

*D_NET *100 0.00328769
*CONN
*I *613:A1 I *D sky130_fd_sc_hd__a21o_1
*I *554:B I *D sky130_fd_sc_hd__nor2_1
*I *614:A2 I *D sky130_fd_sc_hd__o21ai_1
*I *553:Y O *D sky130_fd_sc_hd__inv_2
*CAP
1 *613:A1 0
2 *554:B 0.000207765
3 *614:A2 0.000234241
4 *553:Y 0.000421171
5 *100:25 0.000313912
6 *100:10 0.000761558
7 *554:B *138:10 2.93747e-05
8 *554:A *554:B 0.000152349
9 *613:B1 *554:B 0.00013501
10 *613:B1 *614:A2 0.000105062
11 *613:B1 *100:10 1.58805e-05
12 *613:B1 *100:25 0.000137651
13 *614:A1 *614:A2 0.000329473
14 *614:A1 *100:10 7.70737e-05
15 *46:27 *100:10 0.000100733
16 *47:10 *614:A2 4.08641e-05
17 *48:16 *614:A2 7.53384e-06
18 *87:26 *100:10 7.61508e-05
19 *93:8 *100:10 0.000141888
*RES
1 *553:Y *100:10 45.395 
2 *100:10 *614:A2 43.1164 
3 *100:10 *100:25 16.5743 
4 *100:25 *554:B 26.9979 
5 *100:25 *613:A1 23 
*END

*D_NET *101 0.00479771
*CONN
*I *556:A I *D sky130_fd_sc_hd__inv_2
*I *609:B I *D sky130_fd_sc_hd__nor2_1
*I *559:B1 I *D sky130_fd_sc_hd__o21a_1
*I *555:Y O *D sky130_fd_sc_hd__nand2_1
*CAP
1 *556:A 0
2 *609:B 9.87468e-05
3 *559:B1 0.000306197
4 *555:Y 0
5 *101:33 0.000109592
6 *101:29 0.00086611
7 *101:6 0.00116146
8 *559:B1 *602:A1 0.00023577
9 *559:B1 *112:18 9.28078e-06
10 *559:B1 *146:72 3.70448e-05
11 *559:B1 *146:78 1.19646e-05
12 *609:B *572:A 5.79559e-05
13 *609:B *102:16 2.69729e-05
14 *609:B *144:65 0.00028012
15 *101:29 *571:A 0.000123799
16 *101:29 *571:B 9.97764e-06
17 *101:29 *600:B 0.000228233
18 *101:29 *624:C 1.35999e-05
19 *101:29 *115:16 3.30923e-05
20 *101:29 *116:8 3.2277e-05
21 *101:29 *117:10 8.57577e-05
22 *101:29 *117:14 2.193e-05
23 *101:29 *144:111 2.58781e-05
24 *101:33 *572:A 5.56279e-05
25 *590:B1 *559:B1 0.000330232
26 *590:B1 *101:29 0.000140875
27 *625:A *609:B 0.0002778
28 *625:A *101:33 4.44329e-05
29 *57:10 *101:29 0.000142938
30 *90:10 *559:B1 4.16878e-06
31 *90:20 *559:B1 2.58781e-05
*RES
1 *555:Y *101:6 38 
2 *101:6 *559:B1 45.8921 
3 *101:6 *101:29 44.355 
4 *101:29 *101:33 15.6214 
5 *101:33 *609:B 27.4329 
6 *101:33 *556:A 23 
*END

*D_NET *102 0.00220745
*CONN
*I *572:A I *D sky130_fd_sc_hd__nand2_1
*I *557:B I *D sky130_fd_sc_hd__nor2_1
*I *556:Y O *D sky130_fd_sc_hd__inv_2
*CAP
1 *572:A 0.000188077
2 *557:B 0
3 *556:Y 0
4 *102:16 0.000564309
5 *102:4 0.000752386
6 *572:A *117:10 1.21972e-05
7 *102:16 *570:A 7.20456e-05
8 *102:16 *144:65 0.000128096
9 *569:B *102:16 8.89078e-05
10 *609:B *572:A 5.79559e-05
11 *609:B *102:16 2.69729e-05
12 *625:A *572:A 7.64747e-05
13 *58:10 *572:A 9.67842e-05
14 *88:48 *102:16 0
15 *90:99 *102:16 8.76184e-05
16 *101:33 *572:A 5.56279e-05
*RES
1 *556:Y *102:4 23 
2 *102:4 *102:16 39.9221 
3 *102:16 *557:B 23 
4 *102:4 *572:A 27.35 
*END

*D_NET *103 0.00158671
*CONN
*I *590:A3 I *D sky130_fd_sc_hd__o311a_1
*I *559:A2 I *D sky130_fd_sc_hd__o21a_1
*I *598:A I *D sky130_fd_sc_hd__nand2_1
*I *558:Y O *D sky130_fd_sc_hd__inv_2
*CAP
1 *590:A3 7.09233e-05
2 *559:A2 0.000108855
3 *598:A 7.49911e-05
4 *558:Y 0
5 *103:17 0.000369515
6 *103:4 0.000264727
7 *559:A2 *599:B 0.000139352
8 *590:A3 *146:72 4.51842e-05
9 *598:A *601:C 0.000198545
10 *103:17 *112:18 1.05658e-05
11 *103:17 *146:72 2.92492e-05
12 *103:17 *146:78 1.38338e-05
13 *103:17 *185:27 0
14 *41:10 *598:A 8.1796e-05
15 *41:10 *103:17 0.000138145
16 *42:10 *590:A3 3.6608e-05
17 *42:10 *103:17 4.41821e-06
*RES
1 *558:Y *103:4 23 
2 *103:4 *598:A 25.9 
3 *103:4 *103:17 17.9621 
4 *103:17 *559:A2 39.5743 
5 *103:17 *590:A3 39.5536 
*END

*D_NET *104 0.00119662
*CONN
*I *566:A I *D sky130_fd_sc_hd__nand2_1
*I *559:X O *D sky130_fd_sc_hd__o21a_1
*CAP
1 *566:A 9.62838e-05
2 *559:X 0.000315932
3 *104:12 0.000412215
4 *566:A *541:A 3.00979e-05
5 *566:A *563:A 3.7972e-06
6 *566:A *568:A 0
7 *566:A *111:14 5.3304e-05
8 *104:12 *602:A1 2.26406e-05
9 *104:12 *111:14 0.00016096
10 *104:12 *113:8 9.85586e-06
11 *26:10 *566:A 4.69536e-05
12 *43:8 *566:A 4.45778e-05
*RES
1 *559:X *104:12 46.9781 
2 *104:12 *566:A 48.667 
*END

*D_NET *105 0.00369841
*CONN
*I *623:B I *D sky130_fd_sc_hd__nand2_1
*I *608:B1 I *D sky130_fd_sc_hd__a21oi_1
*I *601:B I *D sky130_fd_sc_hd__nand3_1
*I *562:A I *D sky130_fd_sc_hd__nand2_1
*I *560:Y O *D sky130_fd_sc_hd__inv_2
*CAP
1 *623:B 0
2 *608:B1 4.47314e-05
3 *601:B 0.000114629
4 *562:A 2.34823e-05
5 *560:Y 8.46309e-05
6 *105:36 0.000578953
7 *105:14 0.000532539
8 *105:8 0.00101328
9 *562:A *601:C 0
10 *562:A *107:8 0
11 *601:B *107:8 9.00923e-05
12 *608:B1 *144:50 3.22051e-05
13 *105:8 *144:15 5.56279e-05
14 *105:8 *144:93 5.3304e-05
15 *105:14 *562:B 0.00010018
16 *105:14 *107:8 3.22879e-05
17 *105:14 *110:10 0
18 *105:14 *144:23 3.43144e-05
19 *105:36 *623:A 2.98758e-05
20 *105:36 *116:8 2.1819e-05
21 *105:36 *118:6 0.000274237
22 *105:36 *144:23 0.000116152
23 *673:RESET_B *105:14 0
24 *26:10 *105:14 0
25 *40:12 *105:14 1.0092e-05
26 *40:12 *105:36 0.000221667
27 *40:22 *608:B1 5.56279e-05
28 *56:10 *608:B1 6.17437e-06
29 *56:10 *105:36 3.5781e-06
30 *88:85 *105:14 7.61276e-05
31 *90:38 *105:14 9.28012e-05
*RES
1 *560:Y *105:8 39.0979 
2 *105:8 *105:14 23.1821 
3 *105:14 *562:A 23.4971 
4 *105:14 *601:B 25.0507 
5 *105:8 *105:36 24.6529 
6 *105:36 *608:B1 24.0979 
7 *105:36 *623:B 23 
*END

*D_NET *106 0.00048389
*CONN
*I *562:B I *D sky130_fd_sc_hd__nand2_1
*I *561:Y O *D sky130_fd_sc_hd__inv_2
*CAP
1 *562:B 6.84495e-05
2 *561:Y 0.000123405
3 *106:8 0.000191855
4 *673:RESET_B *106:8 0
5 *105:14 *562:B 0.00010018
*RES
1 *561:Y *106:8 40.2579 
2 *106:8 *562:B 39.5743 
*END

*D_NET *107 0.000676313
*CONN
*I *565:A I *D sky130_fd_sc_hd__nand3_1
*I *562:Y O *D sky130_fd_sc_hd__nand2_1
*CAP
1 *565:A 0
2 *562:Y 0.000152302
3 *107:8 0.000152302
4 *107:8 *601:C 2.30292e-05
5 *107:8 *110:10 0.0002263
6 *562:A *107:8 0
7 *601:B *107:8 9.00923e-05
8 *105:14 *107:8 3.22879e-05
*RES
1 *562:Y *107:8 27.4536 
2 *107:8 *565:A 23 
*END

*D_NET *108 0.00141963
*CONN
*I *599:B I *D sky130_fd_sc_hd__nand3_1
*I *565:B I *D sky130_fd_sc_hd__nand3_1
*I *563:Y O *D sky130_fd_sc_hd__nor2_1
*CAP
1 *599:B 0.000290166
2 *565:B 0
3 *563:Y 4.19084e-05
4 *108:12 0.000158405
5 *108:6 0.000490479
6 *599:B *568:A 2.02872e-05
7 *599:B *568:B 5.41288e-05
8 *599:B *146:78 5.90155e-05
9 *108:6 *568:A 6.17437e-06
10 *108:6 *146:78 1.14762e-05
11 *108:12 *568:A 4.75704e-05
12 *108:12 *112:18 0
13 *108:12 *146:78 0
14 *559:A2 *599:B 0.000139352
15 *563:B *108:12 6.1062e-05
16 *26:10 *108:12 0
17 *43:8 *108:12 3.96053e-05
*RES
1 *563:Y *108:6 23.6214 
2 *108:6 *108:12 32.9621 
3 *108:12 *565:B 23 
4 *108:6 *599:B 28.7586 
*END

*D_NET *109 0.00137852
*CONN
*I *598:B I *D sky130_fd_sc_hd__nand2_1
*I *565:C I *D sky130_fd_sc_hd__nand3_1
*I *564:Y O *D sky130_fd_sc_hd__inv_2
*CAP
1 *598:B 0
2 *565:C 4.69071e-05
3 *564:Y 0.000517845
4 *109:12 4.69071e-05
5 *109:10 0.000517845
6 *565:C *601:C 5.41288e-05
7 *109:10 *171:10 0.000185434
8 *682:RESET_B *109:10 9.45324e-06
9 *26:10 *109:10 0
10 *26:20 *109:10 0
*RES
1 *564:Y *109:10 45.6436 
2 *109:10 *109:12 15 
3 *109:12 *565:C 24.0979 
4 *109:12 *598:B 23 
*END

*D_NET *110 0.00106272
*CONN
*I *566:B I *D sky130_fd_sc_hd__nand2_1
*I *565:Y O *D sky130_fd_sc_hd__nand3_1
*CAP
1 *566:B 0
2 *565:Y 0.000296412
3 *110:10 0.000296412
4 *26:10 *110:10 0.000181943
5 *26:20 *110:10 6.16531e-05
6 *105:14 *110:10 0
7 *107:8 *110:10 0.0002263
*RES
1 *565:Y *110:10 43.8414 
2 *110:10 *566:B 38 
*END

*D_NET *111 0.0010687
*CONN
*I *568:A I *D sky130_fd_sc_hd__nand2_1
*I *566:Y O *D sky130_fd_sc_hd__nand2_1
*CAP
1 *568:A 6.07192e-05
2 *566:Y 0.000251906
3 *111:14 0.000312625
4 *568:A *563:A 4.00259e-06
5 *568:A *602:A1 9.53719e-06
6 *568:A *112:18 2.76611e-06
7 *568:A *146:78 2.93845e-05
8 *111:14 *541:A 2.80924e-06
9 *111:14 *563:A 6.89408e-06
10 *111:14 *146:78 3.61657e-06
11 *563:B *111:14 4.67137e-05
12 *566:A *568:A 0
13 *566:A *111:14 5.3304e-05
14 *599:B *568:A 2.02872e-05
15 *43:8 *111:14 4.94281e-05
16 *104:12 *111:14 0.00016096
17 *108:6 *568:A 6.17437e-06
18 *108:12 *568:A 4.75704e-05
*RES
1 *566:Y *111:14 48.5611 
2 *111:14 *568:A 47.45 
*END

*D_NET *112 0.00175537
*CONN
*I *599:C I *D sky130_fd_sc_hd__nand3_1
*I *602:A1 I *D sky130_fd_sc_hd__o211ai_2
*I *568:B I *D sky130_fd_sc_hd__nand2_1
*I *567:Y O *D sky130_fd_sc_hd__inv_2
*CAP
1 *599:C 0
2 *602:A1 0.000181113
3 *568:B 2.32289e-05
4 *567:Y 6.21789e-05
5 *112:18 0.000570017
6 *112:6 0.000427854
7 *568:B *146:78 5.70419e-05
8 *602:A1 *113:8 3.22283e-05
9 *602:A1 *144:93 5.3304e-05
10 *559:B1 *602:A1 0.00023577
11 *559:B1 *112:18 9.28078e-06
12 *568:A *602:A1 9.53719e-06
13 *568:A *112:18 2.76611e-06
14 *599:B *568:B 5.41288e-05
15 *42:10 *112:6 3.7122e-06
16 *103:17 *112:18 1.05658e-05
17 *104:12 *602:A1 2.26406e-05
18 *108:12 *112:18 0
*RES
1 *567:Y *112:6 24.0979 
2 *112:6 *112:18 32.3851 
3 *112:18 *568:B 39.0979 
4 *112:18 *602:A1 41.9357 
5 *112:6 *599:C 23 
*END

*D_NET *113 0.00183686
*CONN
*I *571:A I *D sky130_fd_sc_hd__nand2_1
*I *568:Y O *D sky130_fd_sc_hd__nand2_1
*CAP
1 *571:A 0.000195677
2 *568:Y 0.000362568
3 *113:8 0.000558246
4 *571:A *600:B 2.64616e-05
5 *571:A *116:8 0
6 *113:8 *141:18 0.000218382
7 *563:B *113:8 3.12814e-05
8 *602:A1 *113:8 3.22283e-05
9 *26:8 *571:A 0.000121793
10 *42:18 *113:8 8.57577e-05
11 *44:10 *113:8 7.08123e-05
12 *101:29 *571:A 0.000123799
13 *104:12 *113:8 9.85586e-06
*RES
1 *568:Y *113:8 45.54 
2 *113:8 *571:A 42.93 
*END

*D_NET *114 0.00207103
*CONN
*I *615:B1 I *D sky130_fd_sc_hd__o211a_1
*I *570:A I *D sky130_fd_sc_hd__nand2_1
*I *569:Y O *D sky130_fd_sc_hd__nor2_1
*CAP
1 *615:B1 0.000412306
2 *570:A 0.00022658
3 *569:Y 4.94869e-05
4 *114:8 0.000688373
5 *570:A *610:B 2.93431e-05
6 *570:A *144:71 2.76611e-06
7 *570:A *156:10 4.2812e-06
8 *615:B1 *615:A2 3.4394e-05
9 *615:B1 *156:10 6.36442e-05
10 *569:B *114:8 4.90429e-06
11 *611:A *570:A 3.22051e-05
12 *87:16 *615:B1 0.000212703
13 *87:26 *615:B1 5.56356e-05
14 *90:99 *570:A 7.35193e-06
15 *90:99 *114:8 9.03364e-06
16 *99:10 *615:B1 0.000165973
17 *102:16 *570:A 7.20456e-05
*RES
1 *569:Y *114:8 38.6214 
2 *114:8 *570:A 42.2879 
3 *114:8 *615:B1 46.3479 
*END

*D_NET *115 0.0024466
*CONN
*I *596:A I *D sky130_fd_sc_hd__inv_2
*I *589:A1 I *D sky130_fd_sc_hd__o21ai_1
*I *571:B I *D sky130_fd_sc_hd__nand2_1
*I *570:Y O *D sky130_fd_sc_hd__nand2_1
*CAP
1 *596:A 0
2 *589:A1 0.000206403
3 *571:B 0.000123927
4 *570:Y 0.000101104
5 *115:16 0.000630995
6 *115:8 0.000401768
7 *571:B *572:B 0
8 *571:B *117:10 0.000132285
9 *571:B *146:16 0
10 *589:A1 *572:B 0.000237027
11 *589:A1 *146:14 1.24376e-05
12 *115:8 *610:B 0.000378816
13 *115:16 *589:A2 0
14 *603:A2 *115:8 4.07902e-05
15 *603:B1 *115:16 0
16 *611:A *115:8 0.000108268
17 *58:10 *589:A1 2.97099e-05
18 *58:10 *115:16 0
19 *101:29 *571:B 9.97764e-06
20 *101:29 *115:16 3.30923e-05
*RES
1 *570:Y *115:8 27.4536 
2 *115:8 *115:16 19.4329 
3 *115:16 *571:B 40.2579 
4 *115:16 *589:A1 42.5986 
5 *115:8 *596:A 23 
*END

*D_NET *116 0.000517364
*CONN
*I *573:A I *D sky130_fd_sc_hd__nand2_1
*I *624:A I *D sky130_fd_sc_hd__nand3_1
*I *571:Y O *D sky130_fd_sc_hd__nand2_1
*CAP
1 *573:A 0
2 *624:A 8.95518e-06
3 *571:Y 9.96855e-05
4 *116:8 0.000108641
5 *624:A *624:C 5.79559e-05
6 *624:A *118:6 2.46906e-05
7 *116:8 *623:A 0
8 *116:8 *624:C 4.70991e-05
9 *116:8 *117:14 5.82853e-05
10 *116:8 *118:6 5.79559e-05
11 *571:A *116:8 0
12 *101:29 *116:8 3.2277e-05
13 *105:36 *116:8 2.1819e-05
*RES
1 *571:Y *116:8 26.0243 
2 *116:8 *624:A 23.6214 
3 *116:8 *573:A 23 
*END

*D_NET *117 0.0011757
*CONN
*I *624:C I *D sky130_fd_sc_hd__nand3_1
*I *573:B I *D sky130_fd_sc_hd__nand2_1
*I *572:Y O *D sky130_fd_sc_hd__nand2_1
*CAP
1 *624:C 0.000130896
2 *573:B 0
3 *572:Y 0.000149582
4 *117:14 0.000144285
5 *117:10 0.000162972
6 *624:C *118:6 4.40271e-05
7 *571:B *117:10 0.000132285
8 *572:A *117:10 1.21972e-05
9 *624:A *624:C 5.79559e-05
10 *625:A *117:10 1.24376e-05
11 *57:10 *624:C 0.000102389
12 *101:29 *624:C 1.35999e-05
13 *101:29 *117:10 8.57577e-05
14 *101:29 *117:14 2.193e-05
15 *116:8 *624:C 4.70991e-05
16 *116:8 *117:14 5.82853e-05
*RES
1 *572:Y *117:10 40.5271 
2 *117:10 *117:14 15.6214 
3 *117:14 *573:B 23 
4 *117:14 *624:C 26.5007 
*END

*D_NET *118 0.00153244
*CONN
*I *623:A I *D sky130_fd_sc_hd__nand2_1
*I *574:A I *D sky130_fd_sc_hd__inv_2
*I *573:Y O *D sky130_fd_sc_hd__nand2_1
*CAP
1 *623:A 3.2208e-05
2 *574:A 0
3 *573:Y 7.89007e-05
4 *118:14 0.000341346
5 *118:6 0.000452454
6 *118:14 *605:A1 2.90581e-05
7 *118:14 *624:B 2.72445e-05
8 *118:14 *144:23 1.58201e-05
9 *118:14 *144:29 5.11621e-05
10 *118:14 *144:50 5.86856e-05
11 *624:A *118:6 2.46906e-05
12 *624:C *118:6 4.40271e-05
13 *40:12 *118:14 1.47709e-05
14 *105:36 *623:A 2.98758e-05
15 *105:36 *118:6 0.000274237
16 *116:8 *623:A 0
17 *116:8 *118:6 5.79559e-05
*RES
1 *573:Y *118:6 26.0036 
2 *118:6 *118:14 36.09 
3 *118:14 *574:A 23 
4 *118:6 *623:A 23.8493 
*END

*D_NET *119 0.00293792
*CONN
*I *576:B1_N I *D sky130_fd_sc_hd__o21bai_1
*I *617:A2 I *D sky130_fd_sc_hd__a211oi_1
*I *575:Y O *D sky130_fd_sc_hd__nand2_1
*CAP
1 *576:B1_N 2.0995e-05
2 *617:A2 3.57804e-05
3 *575:Y 9.53785e-05
4 *119:12 0.0011411
5 *119:8 0.0011797
6 *576:B1_N *125:31 0
7 *119:12 *577:A 0.000119313
8 *119:12 *121:10 0.000182832
9 *576:A2 *576:B1_N 1.14154e-05
10 *576:A2 *617:A2 2.93747e-05
11 *576:A2 *119:12 0.000122031
*RES
1 *575:Y *119:8 39.5536 
2 *119:8 *119:12 34.2021 
3 *119:12 *617:A2 23.6214 
4 *119:12 *576:B1_N 23.4971 
*END

*D_NET *120 0.000448722
*CONN
*I *577:A I *D sky130_fd_sc_hd__nand2_1
*I *576:Y O *D sky130_fd_sc_hd__o21bai_1
*CAP
1 *577:A 0.000155135
2 *576:Y 0.000155135
3 *576:A2 *577:A 1.91381e-05
4 *119:12 *577:A 0.000119313
*RES
1 *576:Y *577:A 49.5214 
*END

*D_NET *121 0.000733005
*CONN
*I *583:A I *D sky130_fd_sc_hd__nand2_1
*I *577:Y O *D sky130_fd_sc_hd__nand2_1
*CAP
1 *583:A 0
2 *577:Y 0.000222351
3 *121:10 0.000222351
4 *121:10 *125:16 0
5 *121:10 *129:10 5.44056e-05
6 *545:A *121:10 2.33476e-05
7 *36:10 *121:10 2.77178e-05
8 *119:12 *121:10 0.000182832
*RES
1 *577:Y *121:10 41.9564 
2 *121:10 *583:A 38 
*END

*D_NET *122 0.0023413
*CONN
*I *638:A I *D sky130_fd_sc_hd__or2_1
*I *579:B I *D sky130_fd_sc_hd__nor2_1
*I *578:Y O *D sky130_fd_sc_hd__nand2_1
*CAP
1 *638:A 9.56995e-05
2 *579:B 0
3 *578:Y 0.000128744
4 *122:26 0.000636007
5 *122:10 0.00086045
6 *122:10 *578:A 1.33516e-05
7 *122:10 *175:41 0.000185434
8 *122:26 *550:A 1.20966e-05
9 *122:26 *578:A 2.77278e-05
10 *122:26 *123:8 5.3304e-05
11 *122:26 *176:16 6.40973e-05
12 *579:A *122:26 1.32314e-05
13 *59:14 *122:26 2.05503e-05
14 *59:26 *638:A 0
15 *63:8 *638:A 0
16 *82:10 *122:10 0.000230604
17 *98:8 *122:10 0
*RES
1 *578:Y *122:10 41.9046 
2 *122:10 *122:26 34.4996 
3 *122:26 *579:B 23 
4 *122:10 *638:A 39.3775 
*END

*D_NET *123 0.00414549
*CONN
*I *642:C I *D sky130_fd_sc_hd__nand3_1
*I *580:B I *D sky130_fd_sc_hd__nor2_1
*I *579:Y O *D sky130_fd_sc_hd__nor2_1
*CAP
1 *642:C 0
2 *580:B 0.00028702
3 *579:Y 4.99221e-05
4 *123:25 0.00066762
5 *123:8 0.00100456
6 *580:B *143:16 4.6318e-06
7 *123:25 *537:B 0.000232049
8 *536:A *580:B 0.000392391
9 *17:130 *580:B 9.16459e-05
10 *59:14 *580:B 0.000292325
11 *59:14 *123:25 0.000389426
12 *67:10 *123:25 7.42423e-05
13 *74:10 *123:25 3.6608e-05
14 *74:14 *123:25 2.83509e-05
15 *74:25 *123:25 6.17437e-06
16 *75:10 *123:25 0.000160125
17 *81:8 *580:B 1.69668e-05
18 *82:20 *580:B 0.000223704
19 *98:8 *580:B 0.000103087
20 *98:8 *123:25 3.13359e-05
21 *98:18 *580:B 0
22 *122:26 *123:8 5.3304e-05
*RES
1 *579:Y *123:8 38.6214 
2 *123:8 *580:B 46.4514 
3 *123:8 *123:25 28.2364 
4 *123:25 *642:C 23 
*END

*D_NET *124 0.00218438
*CONN
*I *617:C1 I *D sky130_fd_sc_hd__a211oi_1
*I *593:A I *D sky130_fd_sc_hd__nand2_1
*I *582:A I *D sky130_fd_sc_hd__nand3_1
*I *580:Y O *D sky130_fd_sc_hd__nor2_1
*CAP
1 *617:C1 0
2 *593:A 0
3 *582:A 0.000138099
4 *580:Y 0.000324649
5 *124:16 0.000338983
6 *124:10 0.000525532
7 *582:A *126:10 7.53384e-06
8 *124:10 *125:16 0
9 *124:10 *125:31 0.000104123
10 *124:10 *148:18 0.000343064
11 *124:16 *125:16 0
12 *544:B *582:A 4.46576e-05
13 *616:A *124:16 4.62967e-05
14 *617:A1 *124:16 6.68793e-05
15 *17:126 *124:10 1.01436e-05
16 *36:10 *582:A 4.75206e-05
17 *59:14 *124:10 0
18 *59:14 *124:16 0
19 *82:20 *124:10 0.000139352
20 *87:14 *124:10 0
21 *89:16 *124:16 6.07611e-06
22 *90:108 *124:16 1.83564e-05
23 *91:12 *124:16 2.31116e-05
*RES
1 *580:Y *124:10 44.6493 
2 *124:10 *124:16 18.2314 
3 *124:16 *582:A 26.045 
4 *124:16 *593:A 23 
5 *124:10 *617:C1 38 
*END

*D_NET *125 0.00321245
*CONN
*I *585:A I *D sky130_fd_sc_hd__nor2_1
*I *616:B I *D sky130_fd_sc_hd__nand2_1
*I *582:B I *D sky130_fd_sc_hd__nand3_1
*I *581:Y O *D sky130_fd_sc_hd__inv_2
*CAP
1 *585:A 0
2 *616:B 0
3 *582:B 0
4 *581:Y 0.000206991
5 *125:31 0.00031328
6 *125:16 0.00032592
7 *125:8 0.00084619
8 *125:8 *129:10 4.39488e-05
9 *125:8 *143:6 1.14154e-05
10 *125:8 *143:80 0.000445374
11 *125:16 *583:B 2.93845e-05
12 *125:16 *129:10 0
13 *125:31 *143:16 0.000141318
14 *125:31 *143:80 1.41129e-05
15 *125:31 *148:10 5.90675e-06
16 *540:B *125:8 4.28695e-05
17 *540:B *125:31 5.3304e-05
18 *576:A1 *125:16 0
19 *576:A2 *125:16 0.000192087
20 *576:B1_N *125:31 0
21 *582:C *125:16 9.28078e-06
22 *616:A *125:16 2.96323e-05
23 *616:A *125:31 8.0163e-06
24 *617:B1 *125:31 1.14154e-05
25 *36:10 *125:16 6.5407e-05
26 *59:14 *125:31 0
27 *86:12 *125:16 3.47781e-05
28 *87:14 *125:31 0.000135465
29 *87:44 *125:8 5.50106e-05
30 *87:44 *125:16 8.72173e-05
31 *121:10 *125:16 0
32 *124:10 *125:16 0
33 *124:10 *125:31 0.000104123
34 *124:16 *125:16 0
*RES
1 *581:Y *125:8 29.3593 
2 *125:8 *125:16 36.0486 
3 *125:16 *582:B 23 
4 *125:8 *125:31 36.9911 
5 *125:31 *616:B 23 
6 *125:8 *585:A 23 
*END

*D_NET *126 0.000520561
*CONN
*I *583:B I *D sky130_fd_sc_hd__nand2_1
*I *582:Y O *D sky130_fd_sc_hd__nand3_1
*CAP
1 *583:B 0.000104058
2 *582:Y 8.59897e-05
3 *126:10 0.000190048
4 *583:B *127:10 2.64616e-05
5 *126:10 *127:10 4.6318e-06
6 *582:A *126:10 7.53384e-06
7 *582:C *126:10 8.21456e-06
8 *36:10 *583:B 2.62931e-05
9 *36:10 *126:10 1.01131e-05
10 *89:16 *126:10 2.78332e-05
11 *125:16 *583:B 2.93845e-05
*RES
1 *582:Y *126:10 39.4707 
2 *126:10 *583:B 40.0714 
*END

*D_NET *127 0.00200089
*CONN
*I *595:B I *D sky130_fd_sc_hd__nor2_1
*I *591:A I *D sky130_fd_sc_hd__or3_1
*I *583:Y O *D sky130_fd_sc_hd__nand2_1
*CAP
1 *595:B 0
2 *591:A 0.000347041
3 *583:Y 0.000189671
4 *127:10 0.000536713
5 *591:A *589:B1 0.000182213
6 *591:A *129:10 0
7 *591:A *135:10 0.000164282
8 *591:A *146:10 6.8667e-05
9 *127:10 *129:10 0
10 *583:B *127:10 2.64616e-05
11 *604:A *591:A 4.41821e-06
12 *621:C *591:A 5.58003e-05
13 *36:10 *127:10 0.000138718
14 *38:10 *591:A 9.81772e-05
15 *45:10 *591:A 3.69096e-05
16 *54:10 *591:A 0.000139647
17 *89:16 *591:A 0
18 *89:16 *127:10 0
19 *92:14 *127:10 7.53384e-06
20 *126:10 *127:10 4.6318e-06
*RES
1 *583:Y *127:10 41.3557 
2 *127:10 *591:A 46.5964 
3 *127:10 *595:B 38 
*END

*D_NET *128 0.00238831
*CONN
*I *603:A1 I *D sky130_fd_sc_hd__a21oi_1
*I *589:A2 I *D sky130_fd_sc_hd__o21ai_1
*I *584:Y O *D sky130_fd_sc_hd__a21oi_1
*CAP
1 *603:A1 6.94194e-05
2 *589:A2 0.000400767
3 *584:Y 0.000532888
4 *128:8 0.00100307
5 *589:A2 *141:18 0
6 *589:A2 *146:14 2.03764e-06
7 *603:A1 *610:B 9.84794e-05
8 *128:8 *141:18 0
9 *128:8 *141:33 0
10 *622:A *589:A2 2.45549e-06
11 *3:23 *128:8 5.02846e-05
12 *58:10 *589:A2 0.000228903
13 *115:16 *589:A2 0
*RES
1 *584:Y *128:8 47.6529 
2 *128:8 *589:A2 43.9657 
3 *128:8 *603:A1 39.0979 
*END

*D_NET *129 0.00167938
*CONN
*I *588:A I *D sky130_fd_sc_hd__nand2_1
*I *594:B I *D sky130_fd_sc_hd__nor2_1
*I *585:Y O *D sky130_fd_sc_hd__nor2_1
*CAP
1 *588:A 2.87323e-05
2 *594:B 0
3 *585:Y 0.000539925
4 *129:12 2.87323e-05
5 *129:10 0.000539925
6 *588:A *588:B 5.41385e-05
7 *588:A *132:10 5.41385e-05
8 *540:B *129:10 5.67058e-05
9 *545:A *129:10 2.33476e-05
10 *576:A1 *129:10 0.000194318
11 *591:A *129:10 0
12 *36:10 *129:10 0
13 *87:6 *129:10 5.67058e-05
14 *92:14 *129:10 4.35681e-06
15 *92:55 *129:10 0
16 *121:10 *129:10 5.44056e-05
17 *125:8 *129:10 4.39488e-05
18 *125:16 *129:10 0
19 *127:10 *129:10 0
*RES
1 *585:Y *129:10 48.295 
2 *129:10 *129:12 15 
3 *129:12 *594:B 23 
4 *129:12 *588:A 24.0979 
*END

*D_NET *130 0.00227016
*CONN
*I *587:B I *D sky130_fd_sc_hd__and2_1
*I *600:B I *D sky130_fd_sc_hd__nor2_1
*I *586:Y O *D sky130_fd_sc_hd__inv_2
*CAP
1 *587:B 0
2 *600:B 0.000208145
3 *586:Y 0
4 *130:23 0.000466778
5 *130:4 0.000674923
6 *600:B *555:B 9.79925e-05
7 *600:B *144:103 2.20564e-05
8 *600:B *144:111 5.58003e-05
9 *130:23 *555:B 2.02872e-05
10 *130:23 *134:10 3.56796e-05
11 *130:23 *135:10 2.49836e-05
12 *130:23 *145:23 7.54074e-05
13 *571:A *600:B 2.64616e-05
14 *604:B *130:23 0.000110267
15 *45:10 *130:23 0.000207265
16 *89:16 *130:23 1.58805e-05
17 *90:87 *130:23 0
18 *101:29 *600:B 0.000228233
*RES
1 *586:Y *130:4 23 
2 *130:4 *600:B 27.9507 
3 *130:4 *130:23 38.0786 
4 *130:23 *587:B 23 
*END

*D_NET *131 0.00613478
*CONN
*I *593:B I *D sky130_fd_sc_hd__nand2_1
*I *588:B I *D sky130_fd_sc_hd__nand2_1
*I *610:B I *D sky130_fd_sc_hd__nor2_1
*I *587:X O *D sky130_fd_sc_hd__and2_1
*CAP
1 *593:B 0.000102344
2 *588:B 0.000561506
3 *610:B 0.0011047
4 *587:X 0.000247862
5 *131:25 0.000794487
6 *131:8 0.0014832
7 *588:B *141:8 2.47815e-05
8 *131:8 *592:A 1.24376e-05
9 *570:A *610:B 2.93431e-05
10 *588:A *588:B 5.41385e-05
11 *594:A *588:B 9.84851e-05
12 *595:A *588:B 1.76557e-05
13 *603:A1 *610:B 9.84794e-05
14 *603:A2 *610:B 1.79293e-05
15 *603:B1 *610:B 0.000145775
16 *611:A *610:B 0.000102248
17 *626:A *131:8 0.000245244
18 *45:8 *610:B 7.36732e-05
19 *48:8 *610:B 4.00259e-06
20 *59:14 *593:B 0
21 *59:14 *131:25 0
22 *89:12 *610:B 7.44257e-05
23 *89:12 *131:8 3.75171e-05
24 *90:87 *131:25 0.000136486
25 *90:99 *588:B 1.59094e-05
26 *90:108 *593:B 0.000193108
27 *90:108 *131:25 8.02348e-05
28 *115:8 *610:B 0.000378816
*RES
1 *587:X *131:8 27.93 
2 *131:8 *610:B 42.2643 
3 *131:8 *131:25 17.9621 
4 *131:25 *588:B 47.715 
5 *131:25 *593:B 40.61 
*END

*D_NET *132 0.00246241
*CONN
*I *589:B1 I *D sky130_fd_sc_hd__o21ai_1
*I *588:Y O *D sky130_fd_sc_hd__nand2_1
*CAP
1 *589:B1 0.000345647
2 *588:Y 0.000284372
3 *132:10 0.000630019
4 *589:B1 *133:8 0.000442771
5 *589:B1 *135:10 2.93845e-05
6 *589:B1 *146:8 4.94011e-05
7 *589:B1 *146:10 7.42078e-05
8 *589:B1 *146:14 4.05481e-05
9 *588:A *132:10 5.41385e-05
10 *591:A *589:B1 0.000182213
11 *622:A *589:B1 0.000124874
12 *38:10 *132:10 0.000175449
13 *54:10 *589:B1 2.93845e-05
*RES
1 *588:Y *132:10 43.8207 
2 *132:10 *589:B1 47.6736 
*END

*D_NET *133 0.00104528
*CONN
*I *591:B I *D sky130_fd_sc_hd__or3_1
*I *589:Y O *D sky130_fd_sc_hd__o21ai_1
*CAP
1 *591:B 0
2 *589:Y 0.000244372
3 *133:8 0.000244372
4 *589:B1 *133:8 0.000442771
5 *622:A *133:8 1.358e-05
6 *55:10 *133:8 0.00010018
*RES
1 *589:Y *133:8 28.8829 
2 *133:8 *591:B 23 
*END

*D_NET *134 0.00141049
*CONN
*I *591:C I *D sky130_fd_sc_hd__or3_1
*I *590:X O *D sky130_fd_sc_hd__o311a_1
*CAP
1 *591:C 0
2 *590:X 0.000380023
3 *134:10 0.000380023
4 *134:10 *144:93 2.10502e-05
5 *134:10 *144:103 0.000322528
6 *134:10 *146:72 0.00023302
7 *134:10 *185:27 2.19667e-05
8 *90:87 *134:10 1.61983e-05
9 *130:23 *134:10 3.56796e-05
*RES
1 *590:X *134:10 47.1143 
2 *134:10 *591:C 38 
*END

*D_NET *135 0.000870449
*CONN
*I *592:A I *D sky130_fd_sc_hd__clkbuf_1
*I *591:X O *D sky130_fd_sc_hd__or3_1
*CAP
1 *592:A 9.6473e-05
2 *591:X 0.000120197
3 *135:10 0.000216669
4 *589:B1 *135:10 2.93845e-05
5 *591:A *135:10 0.000164282
6 *626:A *592:A 9.41704e-05
7 *45:10 *135:10 0.000111852
8 *130:23 *135:10 2.49836e-05
9 *131:8 *592:A 1.24376e-05
*RES
1 *591:X *135:10 40.8793 
2 *135:10 *592:A 39.5743 
*END

*D_NET *136 0.00833713
*CONN
*I *671:D I *D sky130_fd_sc_hd__dfrtp_1
*I *608:Y O *D sky130_fd_sc_hd__a21oi_1
*CAP
1 *671:D 0.000847477
2 *608:Y 0.000270133
3 *136:42 0.00303475
4 *136:14 0.0024574
5 *671:D *143:57 0.000182664
6 *671:D *148:18 1.24376e-05
7 *671:D *157:8 6.30277e-06
8 *136:14 *146:33 0.000166289
9 *136:42 *615:A2 0.000229034
10 *136:42 *173:43 0.000229568
11 *136:42 *174:14 0.000333681
12 *136:42 *175:8 0
13 *136:42 *175:34 0
14 *17:80 *671:D 5.95521e-05
15 *30:8 *136:42 8.62876e-05
16 *40:22 *136:14 9.65021e-05
17 *66:14 *136:42 0.000276952
18 *90:57 *136:14 2.05503e-05
19 *92:18 *136:42 1.42045e-05
20 *99:10 *136:42 1.33431e-05
*RES
1 *608:Y *136:14 47.7755 
2 *136:14 *136:42 43.5477 
3 *136:42 *671:D 49.1443 
*END

*D_NET *137 0.000968886
*CONN
*I *672:D I *D sky130_fd_sc_hd__dfrtp_1
*I *612:X O *D sky130_fd_sc_hd__clkbuf_1
*CAP
1 *672:D 0
2 *612:X 0.000286226
3 *137:10 0.000286226
4 *137:10 *143:130 0.000253844
5 *137:10 *159:59 0.000110922
6 *49:22 *137:10 3.16665e-05
*RES
1 *612:X *137:10 43.0336 
2 *137:10 *672:D 38 
*END

*D_NET *138 0.00084654
*CONN
*I *669:D I *D sky130_fd_sc_hd__dfrtp_1
*I *554:Y O *D sky130_fd_sc_hd__nor2_1
*CAP
1 *669:D 5.32122e-05
2 *554:Y 0.000242599
3 *138:10 0.000295811
4 *138:10 *139:8 0.000114074
5 *554:A *138:10 1.76557e-05
6 *554:B *138:10 2.93747e-05
7 *17:154 *138:10 0
8 *17:156 *138:10 0
9 *27:14 *138:10 9.3813e-05
*RES
1 *554:Y *138:10 43.1164 
2 *138:10 *669:D 38.6836 
*END

*D_NET *139 0.000309214
*CONN
*I *670:D I *D sky130_fd_sc_hd__dfrtp_1
*I *613:X O *D sky130_fd_sc_hd__a21o_1
*CAP
1 *670:D 0
2 *613:X 3.94129e-05
3 *139:8 3.94129e-05
4 *27:14 *139:8 0.000116314
5 *138:10 *139:8 0.000114074
*RES
1 *613:X *139:8 39.5536 
2 *139:8 *670:D 38 
*END

*D_NET *140 0.00208484
*CONN
*I *667:D I *D sky130_fd_sc_hd__dfrtp_1
*I *614:Y O *D sky130_fd_sc_hd__o21ai_1
*CAP
1 *667:D 0
2 *614:Y 0
3 *140:12 0.000739028
4 *140:6 0.000739028
5 *140:12 *667:CLK 9.84794e-05
6 *140:12 *669:CLK 0.000291314
7 *140:12 *142:76 1.58805e-05
8 *140:12 *142:87 0.000201113
*RES
1 *614:Y *140:6 38 
2 *140:6 *140:12 32.0064 
3 *140:12 *667:D 23 
*END

*D_NET *141 0.00480284
*CONN
*I *686:A I *D sky130_fd_sc_hd__clkbuf_16
*I *685:A I *D sky130_fd_sc_hd__clkbuf_16
*I *684:X O *D sky130_fd_sc_hd__clkbuf_16
*CAP
1 *686:A 0
2 *685:A 0
3 *684:X 0.000298707
4 *141:33 0.00055775
5 *141:18 0.0006696
6 *141:8 0.00152606
7 *141:18 *144:111 4.35144e-05
8 *141:33 *584:A1 0
9 *588:B *141:8 2.47815e-05
10 *589:A2 *141:18 0
11 *603:B1 *141:18 0.000154395
12 *3:23 *141:33 0
13 *44:10 *141:18 0.000394674
14 *58:10 *141:18 9.21347e-06
15 *59:14 *141:18 8.16253e-05
16 *59:14 *141:33 0.000276291
17 *89:8 *141:18 5.17737e-05
18 *90:99 *141:8 0.000308946
19 *98:20 *141:33 0.000187129
20 *113:8 *141:18 0.000218382
21 *128:8 *141:18 0
22 *128:8 *141:33 0
*RES
1 *684:X *141:8 42.4329 
2 *141:8 *141:18 29.4793 
3 *141:18 *685:A 23 
4 *141:8 *141:33 27.9464 
5 *141:33 *686:A 23 
*END

*D_NET *142 0.0183858
*CONN
*I *675:CLK I *D sky130_fd_sc_hd__dfrtp_4
*I *674:CLK I *D sky130_fd_sc_hd__dfrtp_1
*I *680:CLK I *D sky130_fd_sc_hd__dfrtp_1
*I *681:CLK I *D sky130_fd_sc_hd__dfrtp_1
*I *677:CLK I *D sky130_fd_sc_hd__dfrtp_1
*I *682:CLK I *D sky130_fd_sc_hd__dfrtp_1
*I *678:CLK I *D sky130_fd_sc_hd__dfrtp_1
*I *666:CLK I *D sky130_fd_sc_hd__dfrtp_1
*I *669:CLK I *D sky130_fd_sc_hd__dfrtp_1
*I *673:CLK I *D sky130_fd_sc_hd__dfrtp_4
*I *668:CLK I *D sky130_fd_sc_hd__dfrtp_1
*I *667:CLK I *D sky130_fd_sc_hd__dfrtp_1
*I *665:CLK I *D sky130_fd_sc_hd__dfrtp_1
*I *683:CLK I *D sky130_fd_sc_hd__dfrtp_1
*I *679:CLK I *D sky130_fd_sc_hd__dfrtp_1
*I *676:CLK I *D sky130_fd_sc_hd__dfrtp_1
*I *685:X O *D sky130_fd_sc_hd__clkbuf_16
*CAP
1 *675:CLK 0
2 *674:CLK 0.000103537
3 *680:CLK 0.000165071
4 *681:CLK 0
5 *677:CLK 4.01155e-05
6 *682:CLK 0
7 *678:CLK 0
8 *666:CLK 6.69419e-06
9 *669:CLK 0.000405574
10 *673:CLK 0
11 *668:CLK 6.63829e-05
12 *667:CLK 4.56652e-05
13 *665:CLK 5.25882e-05
14 *683:CLK 0.000176131
15 *679:CLK 0.000419968
16 *676:CLK 0.000217034
17 *685:X 0.000775556
18 *142:185 0.000622972
19 *142:170 0.000884552
20 *142:138 6.42899e-05
21 *142:120 5.4151e-05
22 *142:89 6.63829e-05
23 *142:87 0.00062981
24 *142:76 0.000428201
25 *142:65 0.000344051
26 *142:45 0.000832485
27 *142:37 0.000782446
28 *142:33 0.00111037
29 *142:31 0.00130966
30 *142:29 0.00170076
31 *142:14 0.00137721
32 *142:12 0.000223031
33 *142:10 0.000784427
34 *142:8 0.000649254
35 *142:6 0.000775556
36 *676:CLK *164:8 2.30292e-05
37 *676:CLK *182:10 2.39877e-05
38 *679:CLK *679:D 5.10805e-05
39 *680:CLK *680:D 6.17437e-06
40 *683:CLK *683:D 2.65879e-05
41 *142:14 *182:10 2.64173e-05
42 *142:29 *182:10 0.000114916
43 *142:33 *678:D 0.000173516
44 *142:138 *183:8 0.000111852
45 *142:185 *146:8 0.000279546
46 clk_gate_en *142:45 2.95184e-05
47 clk_gate_en *142:65 0
48 *614:A1 *669:CLK 4.08219e-05
49 *666:RESET_B *142:37 0.00026542
50 *666:RESET_B *142:45 0
51 *675:RESET_B *142:185 5.07583e-05
52 *678:RESET_B *142:33 4.83893e-05
53 *679:RESET_B *679:CLK 6.61568e-06
54 *679:RESET_B *683:CLK 0.000120857
55 *679:RESET_B *142:45 5.23416e-05
56 *690:A *679:CLK 6.17437e-06
57 *4:10 *142:65 0
58 *4:10 *142:87 0
59 *17:160 *142:87 0
60 *17:173 *665:CLK 3.71251e-05
61 *17:237 *142:31 0.000734763
62 *17:237 *142:33 0.000139357
63 *24:10 *142:65 0
64 *24:10 *142:76 0
65 *24:10 *142:87 0
66 *26:20 *666:CLK 5.79559e-05
67 *26:20 *142:33 1.49097e-05
68 *26:20 *142:37 2.69729e-05
69 *26:20 *142:120 2.46906e-05
70 *26:20 *142:138 0.000138727
71 *90:8 *142:6 3.26241e-05
72 *140:12 *667:CLK 9.84794e-05
73 *140:12 *669:CLK 0.000291314
74 *140:12 *142:76 1.58805e-05
75 *140:12 *142:87 0.000201113
*RES
1 *685:X *142:6 37.4379 
2 *142:6 *142:8 15 
3 *142:8 *142:10 9.30071 
4 *142:10 *142:12 2.25786 
5 *142:12 *142:14 1.90571 
6 *142:14 *676:CLK 42.2879 
7 *142:14 *142:29 28.9614 
8 *142:29 *142:31 9.67357 
9 *142:31 *142:33 9.19714 
10 *142:33 *142:37 21.3386 
11 *142:37 *142:45 19.5571 
12 *142:45 *679:CLK 30.7886 
13 *142:45 *683:CLK 26.9771 
14 *142:37 *142:65 2.25786 
15 *142:65 *665:CLK 39.0979 
16 *142:65 *142:76 2.96214 
17 *142:76 *667:CLK 39.0979 
18 *142:76 *142:87 5.42714 
19 *142:87 *142:89 15 
20 *142:89 *668:CLK 24.0979 
21 *142:89 *673:CLK 23 
22 *142:87 *669:CLK 47.8393 
23 *142:33 *142:120 1.61571 
24 *142:120 *666:CLK 23.6214 
25 *142:120 *678:CLK 23 
26 *142:31 *142:138 31.9057 
27 *142:138 *682:CLK 23 
28 *142:29 *677:CLK 23.8493 
29 *142:12 *681:CLK 38 
30 *142:10 *680:CLK 40.4236 
31 *142:8 *142:170 2.96214 
32 *142:170 *674:CLK 39.5743 
33 *142:170 *142:185 27.9879 
34 *142:185 *675:CLK 23 
*END

*D_NET *143 0.0194539
*CONN
*I *664:CLK I *D sky130_fd_sc_hd__dfrtp_1
*I *662:CLK I *D sky130_fd_sc_hd__dfrtp_1
*I *661:CLK I *D sky130_fd_sc_hd__dfrtp_1
*I *672:CLK I *D sky130_fd_sc_hd__dfrtp_1
*I *658:CLK I *D sky130_fd_sc_hd__dfrtp_1
*I *663:CLK I *D sky130_fd_sc_hd__dfrtp_1
*I *660:CLK I *D sky130_fd_sc_hd__dfrtp_1
*I *659:CLK I *D sky130_fd_sc_hd__dfrtp_1
*I *657:CLK I *D sky130_fd_sc_hd__dfrtp_1
*I *671:CLK I *D sky130_fd_sc_hd__dfrtp_1
*I *656:CLK I *D sky130_fd_sc_hd__dfstp_1
*I *670:CLK I *D sky130_fd_sc_hd__dfrtp_1
*I *687:A I *D sky130_fd_sc_hd__bufinv_16
*I *686:X O *D sky130_fd_sc_hd__clkbuf_16
*CAP
1 *664:CLK 0
2 *662:CLK 0
3 *661:CLK 0
4 *672:CLK 0
5 *658:CLK 0
6 *663:CLK 0
7 *660:CLK 9.61547e-05
8 *659:CLK 0
9 *657:CLK 0.000554011
10 *671:CLK 0
11 *656:CLK 0
12 *670:CLK 0
13 *687:A 0
14 *686:X 2.0995e-05
15 *143:130 0.000345529
16 *143:118 0.000512306
17 *143:116 0.000669785
18 *143:114 0.00118295
19 *143:101 0.00082323
20 *143:95 0.000487143
21 *143:80 0.00105958
22 *143:57 0.000569424
23 *143:41 0.000401322
24 *143:33 0.000634751
25 *143:27 0.000802853
26 *143:25 0.0009945
27 *143:16 0.00119235
28 *143:6 0.00139242
29 *657:CLK *159:27 6.64565e-05
30 *657:CLK *173:8 9.91895e-05
31 *143:33 *618:A 0.000272383
32 *143:57 *174:14 0
33 *143:101 *538:B 4.6834e-05
34 *143:101 *179:27 9.86322e-05
35 *143:130 *159:59 3.69096e-05
36 *536:A *143:16 5.50049e-05
37 *580:B *143:16 4.6318e-06
38 *614:A1 *143:41 2.04774e-05
39 *615:A1 *143:33 6.48142e-05
40 *629:B *143:57 0.000162418
41 *644:B *143:118 1.57571e-05
42 *652:B *143:114 0.000147807
43 *654:B *143:95 0.000117106
44 *654:B *143:101 0.00021739
45 *654:B *143:114 6.13373e-05
46 *656:SET_B *657:CLK 0.000121021
47 *656:SET_B *143:25 0.000166909
48 *656:SET_B *143:33 4.96717e-05
49 *656:SET_B *143:41 2.64616e-05
50 *658:RESET_B *143:116 0.000198495
51 *659:D *143:25 0.000204176
52 *659:RESET_B *143:25 2.84479e-05
53 *660:D *143:80 1.14452e-05
54 *660:D *143:95 0.00031713
55 *660:RESET_B *143:114 0
56 *661:D *143:116 7.42208e-05
57 *661:D *143:118 7.44257e-05
58 *661:RESET_B *143:116 2.84479e-05
59 *662:RESET_B *143:114 0.000178813
60 *671:D *143:57 0.000182664
61 *672:RESET_B *143:118 3.17516e-05
62 *672:RESET_B *143:130 6.39935e-05
63 *17:37 *143:114 0.00044458
64 *17:49 *143:114 0.000258354
65 *17:49 *143:116 0.000230089
66 *17:80 *143:57 5.45644e-05
67 *17:130 *143:16 0.000272458
68 *17:130 *143:25 0.000201777
69 *17:154 *143:41 0
70 *25:8 *143:41 0
71 *27:14 *143:41 0.000278447
72 *35:10 *143:101 0.000138859
73 *49:22 *143:41 0.000802042
74 *49:22 *143:130 3.43965e-05
75 *51:10 *143:33 8.1796e-05
76 *51:10 *143:57 0
77 *59:14 *143:16 5.03129e-05
78 *59:58 *143:57 9.47582e-05
79 *62:10 *143:57 2.57686e-05
80 *74:33 *143:114 0
81 *79:10 *143:101 1.13812e-05
82 *79:10 *143:114 0.000123859
83 *87:14 *143:16 1.32289e-05
84 *94:12 *143:57 0.000114083
85 *94:34 *143:33 0.000151907
86 *94:34 *143:57 0.000139647
87 *98:18 *143:16 8.09767e-05
88 *125:8 *143:6 1.14154e-05
89 *125:8 *143:80 0.000445374
90 *125:31 *143:16 0.000141318
91 *125:31 *143:80 1.41129e-05
92 *137:10 *143:130 0.000253844
*RES
1 *686:X *143:6 23.4971 
2 *143:6 *143:16 43.63 
3 *143:16 *687:A 23 
4 *143:16 *143:25 11.1236 
5 *143:25 *143:27 15 
6 *143:27 *143:33 21.4421 
7 *143:33 *143:41 42.035 
8 *143:41 *670:CLK 23 
9 *143:33 *656:CLK 23 
10 *143:27 *143:57 27.2007 
11 *143:57 *671:CLK 23 
12 *143:25 *657:CLK 33.6264 
13 *143:25 *659:CLK 23 
14 *143:6 *143:80 25.8129 
15 *143:80 *660:CLK 39.595 
16 *143:80 *143:95 23.2443 
17 *143:95 *143:101 19.5364 
18 *143:101 *663:CLK 38 
19 *143:101 *143:114 31.9236 
20 *143:114 *143:116 12.5321 
21 *143:116 *143:118 3.48 
22 *143:118 *143:130 36.7321 
23 *143:130 *658:CLK 23 
24 *143:118 *672:CLK 23 
25 *143:116 *661:CLK 23 
26 *143:114 *662:CLK 23 
27 *143:95 *664:CLK 23 
*END

*D_NET *144 0.0101347
*CONN
*I *590:A1 I *D sky130_fd_sc_hd__o311a_1
*I *555:A I *D sky130_fd_sc_hd__nand2_1
*I *542:A I *D sky130_fd_sc_hd__nor2_1
*I *624:B I *D sky130_fd_sc_hd__nand3_1
*I *570:B I *D sky130_fd_sc_hd__nand2_1
*I *606:A I *D sky130_fd_sc_hd__nor2_1
*I *605:A1 I *D sky130_fd_sc_hd__o21a_1
*I *560:A I *D sky130_fd_sc_hd__inv_2
*I *673:Q O *D sky130_fd_sc_hd__dfrtp_4
*CAP
1 *590:A1 0
2 *555:A 0
3 *542:A 0
4 *624:B 0.000158825
5 *570:B 0
6 *606:A 3.76438e-05
7 *605:A1 0.000285942
8 *560:A 0
9 *673:Q 2.96032e-05
10 *144:111 0.000163121
11 *144:103 0.000660564
12 *144:93 0.00103162
13 *144:71 0.00018228
14 *144:65 0.000419959
15 *144:50 0.000718807
16 *144:29 0.000836243
17 *144:23 0.00048438
18 *144:15 0.000813591
19 *144:6 9.0283e-05
20 *144:50 *609:A 8.58354e-06
21 *144:50 *146:33 5.58873e-06
22 *144:65 *609:A 0.000117078
23 *144:93 *185:27 5.82853e-05
24 *144:103 *555:B 6.55954e-05
25 *144:103 *145:23 0.000138859
26 *144:103 *146:72 1.41891e-05
27 *542:B *144:111 5.09387e-06
28 *570:A *144:71 2.76611e-06
29 *590:B1 *144:93 4.69387e-05
30 *590:B1 *144:111 2.21954e-05
31 *590:C1 *144:93 5.3304e-05
32 *600:B *144:103 2.20564e-05
33 *600:B *144:111 5.58003e-05
34 *602:A1 *144:93 5.3304e-05
35 *602:A2 *144:93 7.38664e-05
36 *605:A2 *605:A1 0.000146822
37 *608:B1 *144:50 3.22051e-05
38 *609:B *144:65 0.00028012
39 *673:RESET_B *605:A1 0.000243268
40 *40:12 *144:29 0.000227476
41 *40:22 *606:A 5.47983e-06
42 *40:22 *144:50 0.000161024
43 *42:18 *144:93 8.30041e-05
44 *44:10 *144:93 2.95526e-05
45 *47:10 *144:65 0.000144501
46 *56:10 *144:50 1.0092e-05
47 *88:12 *144:65 0
48 *88:48 *144:65 0
49 *88:85 *144:15 5.56356e-05
50 *88:85 *144:93 4.21048e-05
51 *89:8 *144:111 1.05441e-05
52 *90:20 *144:93 0.000350832
53 *90:30 *144:93 0.000320097
54 *90:38 *605:A1 8.55793e-05
55 *90:57 *605:A1 0.000201309
56 *90:57 *144:50 6.62564e-05
57 *101:29 *144:111 2.58781e-05
58 *102:16 *144:65 0.000128096
59 *105:8 *144:15 5.56279e-05
60 *105:8 *144:93 5.3304e-05
61 *105:14 *144:23 3.43144e-05
62 *105:36 *144:23 0.000116152
63 *118:14 *605:A1 2.90581e-05
64 *118:14 *624:B 2.72445e-05
65 *118:14 *144:23 1.58201e-05
66 *118:14 *144:29 5.11621e-05
67 *118:14 *144:50 5.86856e-05
68 *134:10 *144:93 2.10502e-05
69 *134:10 *144:103 0.000322528
70 *141:18 *144:111 4.35144e-05
*RES
1 *673:Q *144:6 23.6214 
2 *144:6 *560:A 23 
3 *144:6 *144:15 1.595 
4 *144:15 *144:23 19.6814 
5 *144:23 *144:29 32.5271 
6 *144:29 *605:A1 46.6586 
7 *144:29 *144:50 21.6079 
8 *144:50 *606:A 23.8493 
9 *144:50 *144:65 36.6907 
10 *144:65 *144:71 32.9621 
11 *144:71 *570:B 23 
12 *144:23 *624:B 40.61 
13 *144:15 *144:93 13.5471 
14 *144:93 *144:103 39.8807 
15 *144:103 *144:111 33.2314 
16 *144:111 *542:A 23 
17 *144:103 *555:A 23 
18 *144:93 *590:A1 23 
*END

*D_NET *145 0.00163739
*CONN
*I *586:A I *D sky130_fd_sc_hd__inv_2
*I *555:B I *D sky130_fd_sc_hd__nand2_1
*I *543:A I *D sky130_fd_sc_hd__clkbuf_2
*I *674:Q O *D sky130_fd_sc_hd__dfrtp_1
*CAP
1 *586:A 0
2 *555:B 5.67221e-05
3 *543:A 0
4 *674:Q 0.000182214
5 *145:23 0.000241917
6 *145:12 0.00015187
7 *145:6 0.000519279
8 *145:6 *169:10 7.91414e-06
9 *600:B *555:B 9.79925e-05
10 *604:A *145:6 2.10502e-05
11 *604:B *145:23 5.82853e-05
12 *130:23 *555:B 2.02872e-05
13 *130:23 *145:23 7.54074e-05
14 *144:103 *555:B 6.55954e-05
15 *144:103 *145:23 0.000138859
*RES
1 *674:Q *145:6 25.5271 
2 *145:6 *145:12 32.61 
3 *145:12 *543:A 23 
4 *145:6 *145:23 4.82643 
5 *145:23 *555:B 24.5743 
6 *145:23 *586:A 23 
*END

*D_NET *146 0.0124444
*CONN
*I *621:B I *D sky130_fd_sc_hd__nand3_1
*I *559:A1 I *D sky130_fd_sc_hd__o21a_1
*I *563:A I *D sky130_fd_sc_hd__nor2_1
*I *541:A I *D sky130_fd_sc_hd__inv_6
*I *572:B I *D sky130_fd_sc_hd__nand2_1
*I *609:A I *D sky130_fd_sc_hd__nor2_1
*I *608:A1 I *D sky130_fd_sc_hd__a21oi_1
*I *600:A I *D sky130_fd_sc_hd__nor2_1
*I *675:Q O *D sky130_fd_sc_hd__dfrtp_4
*CAP
1 *621:B 2.18824e-05
2 *559:A1 0
3 *563:A 3.25231e-05
4 *541:A 0.000467692
5 *572:B 0.00015163
6 *609:A 0.000151258
7 *608:A1 0
8 *600:A 0
9 *675:Q 0.000928183
10 *146:78 0.000899217
11 *146:72 0.000845724
12 *146:33 0.00119506
13 *146:16 0.00114121
14 *146:14 0.000647666
15 *146:10 0.00115638
16 *146:8 0.00126111
17 *559:B1 *146:72 3.70448e-05
18 *559:B1 *146:78 1.19646e-05
19 *566:A *541:A 3.00979e-05
20 *566:A *563:A 3.7972e-06
21 *568:A *563:A 4.00259e-06
22 *568:A *146:78 2.93845e-05
23 *568:B *146:78 5.70419e-05
24 *571:B *572:B 0
25 *571:B *146:16 0
26 *589:A1 *572:B 0.000237027
27 *589:A1 *146:14 1.24376e-05
28 *589:A2 *146:14 2.03764e-06
29 *589:B1 *146:8 4.94011e-05
30 *589:B1 *146:10 7.42078e-05
31 *589:B1 *146:14 4.05481e-05
32 *590:A3 *146:72 4.51842e-05
33 *591:A *146:10 6.8667e-05
34 *599:B *146:78 5.90155e-05
35 *603:B1 *572:B 2.46384e-05
36 *621:C *146:10 5.58003e-05
37 *622:A *146:14 0.000313785
38 *675:RESET_B *146:8 9.36858e-05
39 *41:10 *146:78 6.10809e-05
40 *44:10 *572:B 3.32202e-05
41 *44:10 *146:16 0.000134517
42 *56:10 *609:A 0
43 *58:10 *572:B 0.000132671
44 *88:18 *146:33 0.000212374
45 *90:10 *146:72 0.000246023
46 *90:20 *146:72 4.44225e-05
47 *90:38 *541:A 0.000225441
48 *90:87 *146:72 0.000313135
49 *103:17 *146:72 2.92492e-05
50 *103:17 *146:78 1.38338e-05
51 *108:6 *146:78 1.14762e-05
52 *108:12 *146:78 0
53 *111:14 *541:A 2.80924e-06
54 *111:14 *563:A 6.89408e-06
55 *111:14 *146:78 3.61657e-06
56 *134:10 *146:72 0.00023302
57 *136:14 *146:33 0.000166289
58 *142:185 *146:8 0.000279546
59 *144:50 *609:A 8.58354e-06
60 *144:50 *146:33 5.58873e-06
61 *144:65 *609:A 0.000117078
62 *144:103 *146:72 1.41891e-05
*RES
1 *675:Q *146:8 36.5057 
2 *146:8 *146:10 4.43286 
3 *146:10 *146:14 20.3857 
4 *146:14 *146:16 1.90571 
5 *146:16 *600:A 38 
6 *146:16 *146:33 18.352 
7 *146:33 *608:A1 38 
8 *146:33 *609:A 40.8793 
9 *146:14 *572:B 41.9979 
10 *146:10 *146:72 26.1236 
11 *146:72 *146:78 21.5871 
12 *146:78 *541:A 31.7621 
13 *146:78 *563:A 24.1186 
14 *146:72 *559:A1 38 
15 *146:8 *621:B 23.4971 
*END

*D_NET *147 0.000544795
*CONN
*I *575:B I *D sky130_fd_sc_hd__nand2_1
*I *688:X O *D sky130_fd_sc_hd__clkbuf_1
*CAP
1 *575:B 0.000157946
2 *688:X 0.000157946
3 *575:B *158:16 0.000228903
*RES
1 *688:X *575:B 49.8529 
*END

*D_NET *148 0.00474146
*CONN
*I *707:A I *D sky130_fd_sc_hd__clkbuf_1
*I *617:Y O *D sky130_fd_sc_hd__a211oi_1
*CAP
1 *707:A 0
2 *617:Y 4.34638e-05
3 *148:18 0.00137132
4 *148:10 0.00141478
5 *148:18 *550:A 0
6 *148:18 *157:8 3.34276e-06
7 *148:18 *176:16 0
8 *576:A2 *148:10 0
9 *576:A2 *148:18 5.93381e-05
10 *617:A1 *148:10 2.93845e-05
11 *617:B1 *148:10 3.80863e-05
12 *639:B *148:18 0.000174908
13 *640:A *148:18 0.000225576
14 *660:RESET_B *148:18 0.000375527
15 *671:D *148:18 1.24376e-05
16 *17:126 *148:18 0.000141294
17 *31:8 *148:18 0.000183547
18 *59:18 *148:18 1.12268e-05
19 *59:93 *148:18 2.97099e-05
20 *59:106 *148:18 5.67018e-05
21 *85:10 *148:18 8.82154e-05
22 *86:10 *148:18 7.53189e-05
23 *86:12 *148:18 5.83085e-05
24 *124:10 *148:18 0.000343064
25 *125:31 *148:10 5.90675e-06
*RES
1 *617:Y *148:10 39.1186 
2 *148:10 *148:18 45.2429 
3 *148:18 *707:A 23 
*END

*D_NET *149 0.000254776
*CONN
*I *696:A I *D sky130_fd_sc_hd__buf_4
*I *666:Q O *D sky130_fd_sc_hd__dfrtp_1
*CAP
1 *696:A 7.7298e-05
2 *666:Q 7.7298e-05
3 *9:10 *696:A 0.00010018
*RES
1 *666:Q *696:A 47.9471 
*END

*D_NET *150 0.00041569
*CONN
*I *697:A I *D sky130_fd_sc_hd__clkbuf_2
*I *671:Q O *D sky130_fd_sc_hd__dfrtp_1
*CAP
1 *697:A 0
2 *671:Q 0.000207845
3 *150:10 0.000207845
4 pwr_state[0] *150:10 0
*RES
1 *671:Q *150:10 41.3557 
2 *150:10 *697:A 38 
*END

*D_NET *151 0.000369901
*CONN
*I *698:A I *D sky130_fd_sc_hd__clkbuf_2
*I *672:Q O *D sky130_fd_sc_hd__dfrtp_1
*CAP
1 *698:A 0
2 *672:Q 0.000184951
3 *151:10 0.000184951
*RES
1 *672:Q *151:10 40.6514 
2 *151:10 *698:A 38 
*END

*D_NET *152 0.000214168
*CONN
*I *699:A I *D sky130_fd_sc_hd__buf_2
*I *670:Q O *D sky130_fd_sc_hd__dfrtp_1
*CAP
1 *699:A 0
2 *670:Q 0.000107084
3 *152:8 0.000107084
4 *16:10 *152:8 0
*RES
1 *670:Q *152:8 39.9057 
2 *152:8 *699:A 38 
*END

*D_NET *153 0.000820392
*CONN
*I *700:A I *D sky130_fd_sc_hd__buf_4
*I *667:Q O *D sky130_fd_sc_hd__dfrtp_1
*CAP
1 *700:A 2.32824e-05
2 *667:Q 0.000316272
3 *153:10 0.000339554
4 *153:10 *165:8 8.62783e-05
5 *665:RESET_B *153:10 0
6 *18:10 *700:A 5.50049e-05
7 *18:10 *153:10 0
*RES
1 *667:Q *153:10 43.3443 
2 *153:10 *700:A 38.6214 
*END

*D_NET *154 0.000199339
*CONN
*I *701:A I *D sky130_fd_sc_hd__buf_2
*I *669:Q O *D sky130_fd_sc_hd__dfrtp_1
*CAP
1 *701:A 0
2 *669:Q 9.96696e-05
3 *154:8 9.96696e-05
*RES
1 *669:Q *154:8 39.9057 
2 *154:8 *701:A 38 
*END

*D_NET *155 0.000214272
*CONN
*I *702:A I *D sky130_fd_sc_hd__buf_2
*I *668:Q O *D sky130_fd_sc_hd__dfrtp_1
*CAP
1 *702:A 0
2 *668:Q 8.65725e-05
3 *155:8 8.65725e-05
4 *21:8 *155:8 4.11274e-05
*RES
1 *668:Q *155:8 39.9057 
2 *155:8 *702:A 38 
*END

*D_NET *156 0.00188705
*CONN
*I *708:A I *D sky130_fd_sc_hd__buf_1
*I *557:Y O *D sky130_fd_sc_hd__nor2_1
*CAP
1 *708:A 0.000145735
2 *557:Y 0.000446903
3 *156:10 0.000592637
4 *708:A *618:A 1.37232e-05
5 *708:A *159:10 0.000101226
6 *156:10 *615:A2 1.12919e-05
7 *156:10 *159:10 0
8 *549:A *708:A 5.58012e-05
9 *549:B *708:A 1.24376e-05
10 *569:B *156:10 8.15864e-05
11 *570:A *156:10 4.2812e-06
12 *615:A1 *156:10 0
13 *615:B1 *156:10 6.36442e-05
14 *46:27 *156:10 0
15 *96:8 *708:A 1.46205e-05
16 *99:10 *156:10 0.000343168
*RES
1 *557:Y *156:10 46.7621 
2 *156:10 *708:A 41.3764 
*END

*D_NET *157 0.00407252
*CONN
*I *695:A I *D sky130_fd_sc_hd__clkbuf_2
*I *707:X O *D sky130_fd_sc_hd__clkbuf_1
*CAP
1 *695:A 0
2 *707:X 9.69076e-05
3 *157:14 0.00147146
4 *157:8 0.00156837
5 *157:14 *159:59 0.00048975
6 *157:14 *174:14 0.000292741
7 *658:RESET_B *157:14 0
8 *671:D *157:8 6.30277e-06
9 *22:10 *157:14 0.000143655
10 *148:18 *157:8 3.34276e-06
*RES
1 *707:X *157:8 39.0979 
2 *157:8 *157:14 42.8814 
3 *157:14 *695:A 23 
*END

*D_NET *158 0.00344363
*CONN
*I *575:A I *D sky130_fd_sc_hd__nand2_1
*I *689:X O *D sky130_fd_sc_hd__clkbuf_1
*CAP
1 *575:A 0
2 *689:X 4.96719e-05
3 *158:16 0.00154439
4 *158:8 0.00159406
5 *575:B *158:16 0.000228903
6 *688:A *158:16 2.66127e-05
*RES
1 *689:X *158:8 38.6214 
2 *158:8 *158:16 46.2371 
3 *158:16 *575:A 23 
*END

*D_NET *159 0.00918307
*CONN
*I *703:A I *D sky130_fd_sc_hd__clkbuf_2
*I *642:A I *D sky130_fd_sc_hd__nand3_1
*I *619:A I *D sky130_fd_sc_hd__nand2_1
*I *618:B I *D sky130_fd_sc_hd__or2_1
*I *708:X O *D sky130_fd_sc_hd__buf_1
*CAP
1 *703:A 0
2 *642:A 7.83259e-05
3 *619:A 2.95011e-05
4 *618:B 0
5 *708:X 0.000177859
6 *159:59 0.000554889
7 *159:44 0.00147082
8 *159:38 0.00226179
9 *159:27 0.00105551
10 *159:10 0.00088946
11 *642:A *177:10 5.75756e-06
12 *549:A *159:10 8.68427e-06
13 *615:A1 *159:10 4.68476e-05
14 *615:A1 *159:27 2.60152e-05
15 *631:B *159:44 0.000187407
16 *641:B *642:A 4.2651e-05
17 *649:B *642:A 8.08204e-05
18 *656:SET_B *159:27 0.000350769
19 *657:CLK *159:27 6.64565e-05
20 *657:RESET_B *159:27 0.000132614
21 *657:RESET_B *159:38 0.000224556
22 *672:RESET_B *159:59 0
23 *708:A *159:10 0.000101226
24 *3:13 *159:59 0
25 *29:10 *159:38 4.41821e-06
26 *29:10 *159:59 5.91668e-05
27 *49:22 *159:27 0.000145936
28 *49:22 *159:38 0.000268364
29 *49:22 *159:59 3.6608e-05
30 *53:8 *619:A 5.50106e-05
31 *62:10 *159:38 0.000143166
32 *94:34 *159:27 4.08537e-05
33 *137:10 *159:59 0.000110922
34 *143:130 *159:59 3.69096e-05
35 *156:10 *159:10 0
36 *157:14 *159:59 0.00048975
*RES
1 *708:X *159:10 40.7757 
2 *159:10 *618:B 38 
3 *159:10 *159:27 42.2629 
4 *159:27 *619:A 38.6214 
5 *159:27 *159:38 9.30071 
6 *159:38 *159:44 47.7729 
7 *159:44 *642:A 40.2579 
8 *159:38 *159:59 28.2779 
9 *159:59 *703:A 23 
*END

*D_NET *160 0.000422319
*CONN
*I *679:D I *D sky130_fd_sc_hd__dfrtp_1
*I *690:X O *D sky130_fd_sc_hd__clkbuf_1
*CAP
1 *679:D 0.000158117
2 *690:X 0.000158117
3 *679:CLK *679:D 5.10805e-05
4 *690:A *679:D 5.50049e-05
*RES
1 *690:X *679:D 48.5479 
*END

*D_NET *161 0.000392101
*CONN
*I *677:D I *D sky130_fd_sc_hd__dfrtp_1
*I *691:X O *D sky130_fd_sc_hd__clkbuf_1
*CAP
1 *677:D 0
2 *691:X 0.000196051
3 *161:10 0.000196051
*RES
1 *691:X *161:10 41.0036 
2 *161:10 *677:D 38 
*END

*D_NET *162 0.00136079
*CONN
*I *678:D I *D sky130_fd_sc_hd__dfrtp_1
*I *692:X O *D sky130_fd_sc_hd__clkbuf_1
*CAP
1 *678:D 0.000154691
2 *692:X 0.000225078
3 *162:10 0.000379769
4 *162:10 *170:18 9.53387e-05
5 *15:13 *162:10 6.48142e-05
6 *26:20 *678:D 0.00026758
7 *26:20 *162:10 0
8 *142:33 *678:D 0.000173516
*RES
1 *692:X *162:10 42.2879 
2 *162:10 *678:D 43.3857 
*END

*D_NET *163 0.00410562
*CONN
*I *581:A I *D sky130_fd_sc_hd__inv_2
*I *693:X O *D sky130_fd_sc_hd__buf_1
*CAP
1 *581:A 0.000958396
2 *693:X 0
3 *163:10 0.00204644
4 *163:6 0.00108804
5 *693:A *163:10 1.27424e-05
*RES
1 *693:X *163:6 38 
2 *163:6 *163:10 36.6257 
3 *163:10 *581:A 39.82 
*END

*D_NET *164 0.00176694
*CONN
*I *676:D I *D sky130_fd_sc_hd__dfrtp_1
*I *694:X O *D sky130_fd_sc_hd__clkbuf_1
*CAP
1 *676:D 0
2 *694:X 0.000857264
3 *164:8 0.000857264
4 *676:CLK *164:8 2.30292e-05
5 *694:A *164:8 2.93845e-05
*RES
1 *694:X *164:8 34.1236 
2 *164:8 *676:D 23 
*END

*D_NET *165 0.000560034
*CONN
*I *704:A I *D sky130_fd_sc_hd__buf_4
*I *665:Q O *D sky130_fd_sc_hd__dfrtp_1
*CAP
1 *704:A 0
2 *665:Q 0.000236878
3 *165:8 0.000236878
4 *153:10 *165:8 8.62783e-05
*RES
1 *665:Q *165:8 42.7229 
2 *165:8 *704:A 38 
*END

*D_NET *166 0.000668361
*CONN
*I *705:A I *D sky130_fd_sc_hd__clkbuf_2
*I *656:Q O *D sky130_fd_sc_hd__dfstp_1
*CAP
1 *705:A 0
2 *656:Q 0.000334181
3 *166:10 0.000334181
4 *7:10 *166:10 0
5 *28:10 *166:10 0
*RES
1 *656:Q *166:10 43.9346 
2 *166:10 *705:A 38 
*END

*D_NET *167 0.00075222
*CONN
*I *673:D I *D sky130_fd_sc_hd__dfrtp_4
*I *574:Y O *D sky130_fd_sc_hd__inv_2
*CAP
1 *673:D 0.000251488
2 *574:Y 0.000124622
3 *167:8 0.00037611
*RES
1 *574:Y *167:8 40.2579 
2 *167:8 *673:D 41.9564 
*END

*D_NET *168 0.00175315
*CONN
*I *674:D I *D sky130_fd_sc_hd__dfrtp_1
*I *592:X O *D sky130_fd_sc_hd__clkbuf_1
*CAP
1 *674:D 0.00011672
2 *592:X 0.000759857
3 *168:10 0.000876577
*RES
1 *592:X *168:10 48.7093 
2 *168:10 *674:D 39.5743 
*END

*D_NET *169 0.00083888
*CONN
*I *675:D I *D sky130_fd_sc_hd__dfrtp_4
*I *604:Y O *D sky130_fd_sc_hd__nand2_1
*CAP
1 *675:D 0
2 *604:Y 0.000387132
3 *169:10 0.000387132
4 *604:A *169:10 2.95423e-05
5 *675:RESET_B *169:10 2.71586e-05
6 *145:6 *169:10 7.91414e-06
*RES
1 *604:Y *169:10 43.51 
2 *169:10 *675:D 38 
*END

*D_NET *170 0.00107022
*CONN
*I *561:A I *D sky130_fd_sc_hd__inv_2
*I *683:Q O *D sky130_fd_sc_hd__dfrtp_1
*CAP
1 *561:A 4.28066e-05
2 *683:Q 0.000410644
3 *170:18 0.000453451
4 *170:18 *183:8 0
5 *673:RESET_B *170:18 0
6 *683:RESET_B *170:18 6.79813e-05
7 *17:203 *170:18 0
8 *162:10 *170:18 9.53387e-05
*RES
1 *683:Q *170:18 44.8771 
2 *170:18 *561:A 38.6214 
*END

*D_NET *171 0.00248363
*CONN
*I *558:A I *D sky130_fd_sc_hd__inv_2
*I *601:C I *D sky130_fd_sc_hd__nand3_1
*I *681:Q O *D sky130_fd_sc_hd__dfrtp_1
*CAP
1 *558:A 0
2 *601:C 0.000452647
3 *681:Q 0.000403415
4 *171:12 0.000452647
5 *171:10 0.000403415
6 *171:10 *564:A 3.22879e-05
7 *562:A *601:C 0
8 *565:C *601:C 5.41288e-05
9 *598:A *601:C 0.000198545
10 *681:RESET_B *171:10 0.000274366
11 *682:RESET_B *171:10 3.7122e-06
12 *107:8 *601:C 2.30292e-05
13 *109:10 *171:10 0.000185434
*RES
1 *681:Q *171:10 46.9486 
2 *171:10 *171:12 15 
3 *171:12 *601:C 31.6793 
4 *171:12 *558:A 23 
*END

*D_NET *172 0.000154498
*CONN
*I *564:A I *D sky130_fd_sc_hd__inv_2
*I *682:Q O *D sky130_fd_sc_hd__dfrtp_1
*CAP
1 *564:A 2.97985e-05
2 *682:Q 2.97985e-05
3 *681:RESET_B *564:A 6.26126e-05
4 *171:10 *564:A 3.22879e-05
*RES
1 *682:Q *564:A 47.1186 
*END

*D_NET *173 0.0060447
*CONN
*I *619:B I *D sky130_fd_sc_hd__nand2_1
*I *535:B I *D sky130_fd_sc_hd__nand2_1
*I *615:A2 I *D sky130_fd_sc_hd__o211a_1
*I *548:A I *D sky130_fd_sc_hd__inv_2
*I *618:A I *D sky130_fd_sc_hd__or2_1
*I *657:Q O *D sky130_fd_sc_hd__dfrtp_1
*CAP
1 *619:B 2.76056e-05
2 *535:B 0
3 *615:A2 0.000332067
4 *548:A 0
5 *618:A 0.000327488
6 *657:Q 0.000143503
7 *173:43 0.000661024
8 *173:35 0.000525501
9 *173:27 0.000289372
10 *173:8 0.000536214
11 *173:43 *535:A 5.79559e-05
12 *173:43 *174:14 4.44329e-05
13 *549:A *618:A 6.17437e-06
14 *615:B1 *615:A2 3.4394e-05
15 *620:B *173:35 2.44913e-05
16 *627:B *173:35 0.000224605
17 *656:SET_B *618:A 0.000110922
18 *657:CLK *173:8 9.91895e-05
19 *708:A *618:A 1.37232e-05
20 *30:8 *173:43 8.62876e-05
21 *49:22 *618:A 0.000283769
22 *49:22 *619:B 5.24393e-05
23 *49:22 *173:27 0.000101708
24 *51:10 *618:A 3.72175e-05
25 *51:10 *619:B 1.86973e-05
26 *51:10 *173:27 2.96369e-05
27 *53:8 *173:35 9.84851e-05
28 *59:39 *173:35 8.99769e-05
29 *59:39 *173:43 4.04643e-05
30 *60:10 *173:35 0.000179311
31 *82:10 *173:43 0.000188927
32 *87:16 *615:A2 0.000228558
33 *87:26 *615:A2 5.56356e-05
34 *94:6 *173:35 9.52122e-05
35 *94:6 *173:43 2.36123e-05
36 *94:12 *173:35 9.41704e-05
37 *94:34 *173:43 0
38 *99:10 *615:A2 0.000139647
39 *136:42 *615:A2 0.000229034
40 *136:42 *173:43 0.000229568
41 *143:33 *618:A 0.000272383
42 *156:10 *615:A2 1.12919e-05
*RES
1 *657:Q *173:8 40.0507 
2 *173:8 *618:A 46.7621 
3 *173:8 *173:27 1.55357 
4 *173:27 *173:35 21.8564 
5 *173:35 *173:43 23.4514 
6 *173:43 *548:A 38 
7 *173:43 *615:A2 46.0371 
8 *173:35 *535:B 23 
9 *173:27 *619:B 38.8493 
*END

*D_NET *174 0.00223551
*CONN
*I *547:A I *D sky130_fd_sc_hd__inv_2
*I *535:A I *D sky130_fd_sc_hd__nand2_1
*I *658:Q O *D sky130_fd_sc_hd__dfrtp_1
*CAP
1 *547:A 0
2 *535:A 9.86826e-06
3 *658:Q 0.000215747
4 *174:14 0.000497658
5 *174:8 0.000703536
6 *59:39 *535:A 3.22051e-05
7 *59:39 *174:14 2.93335e-05
8 *72:8 *174:8 1.83545e-05
9 *136:42 *174:14 0.000333681
10 *143:57 *174:14 0
11 *157:14 *174:14 0.000292741
12 *173:43 *535:A 5.79559e-05
13 *173:43 *174:14 4.44329e-05
*RES
1 *658:Q *174:8 40.5271 
2 *174:8 *174:14 25.9786 
3 *174:14 *535:A 23.6214 
4 *174:14 *547:A 23 
*END

*D_NET *175 0.00234448
*CONN
*I *578:B I *D sky130_fd_sc_hd__nand2_1
*I *534:B I *D sky130_fd_sc_hd__nor2_1
*I *632:A I *D sky130_fd_sc_hd__inv_2
*I *552:A I *D sky130_fd_sc_hd__or3_1
*I *584:A1 I *D sky130_fd_sc_hd__a21oi_1
*I *659:Q O *D sky130_fd_sc_hd__dfrtp_1
*CAP
1 *578:B 0
2 *534:B 0
3 *632:A 0
4 *552:A 0
5 *584:A1 0.000181583
6 *659:Q 0
7 *175:51 0.000140873
8 *175:41 0.000210331
9 *175:34 0.000236945
10 *175:8 0.000367002
11 *175:6 0.000352907
12 *59:26 *175:34 5.56356e-05
13 *59:26 *175:41 0.00040178
14 *82:10 *175:34 2.93431e-05
15 *82:10 *175:41 0.000116151
16 *98:8 *175:51 2.5343e-05
17 *98:32 *584:A1 1.16659e-05
18 *98:32 *175:8 2.94915e-05
19 *122:10 *175:41 0.000185434
20 *136:42 *175:8 0
21 *136:42 *175:34 0
22 *141:33 *584:A1 0
*RES
1 *659:Q *175:6 38 
2 *175:6 *175:8 3.31429 
3 *175:8 *584:A1 41.3971 
4 *175:8 *552:A 38 
5 *175:6 *175:34 18.2314 
6 *175:34 *632:A 23 
7 *175:34 *175:41 4.43286 
8 *175:41 *175:51 32.2164 
9 *175:51 *534:B 23 
10 *175:41 *578:B 23 
*END

*D_NET *176 0.00157212
*CONN
*I *550:A I *D sky130_fd_sc_hd__inv_2
*I *578:A I *D sky130_fd_sc_hd__nand2_1
*I *534:A I *D sky130_fd_sc_hd__nor2_1
*I *660:Q O *D sky130_fd_sc_hd__dfrtp_1
*CAP
1 *550:A 0.000105262
2 *578:A 0.000201328
3 *534:A 0
4 *660:Q 8.36887e-05
5 *176:16 0.000356812
6 *176:8 0.000344435
7 *579:A *176:8 2.93845e-05
8 *579:A *176:16 5.50049e-05
9 *17:126 *176:16 9.48381e-06
10 *59:14 *550:A 4.8643e-05
11 *59:14 *176:16 3.64086e-05
12 *59:26 *578:A 3.84098e-05
13 *82:10 *578:A 3.69811e-05
14 *82:10 *176:16 9.76261e-05
15 *84:10 *550:A 1.13812e-05
16 *122:10 *578:A 1.33516e-05
17 *122:26 *550:A 1.20966e-05
18 *122:26 *578:A 2.77278e-05
19 *122:26 *176:16 6.40973e-05
20 *148:18 *550:A 0
21 *148:18 *176:16 0
*RES
1 *660:Q *176:8 39.0979 
2 *176:8 *176:16 18.7493 
3 *176:16 *534:A 23 
4 *176:16 *578:A 27.8264 
5 *176:8 *550:A 39.9057 
*END

*D_NET *177 0.0021567
*CONN
*I *537:B I *D sky130_fd_sc_hd__nor2_1
*I *642:B I *D sky130_fd_sc_hd__nand3_1
*I *641:A_N I *D sky130_fd_sc_hd__nand2b_1
*I *661:Q O *D sky130_fd_sc_hd__dfrtp_1
*CAP
1 *537:B 0.000230299
2 *642:B 0
3 *641:A_N 0
4 *661:Q 0.00035291
5 *177:21 0.000308613
6 *177:12 7.83145e-05
7 *177:10 0.00035291
8 *641:B *177:10 1.0092e-05
9 *642:A *177:10 5.75756e-06
10 *643:B *177:21 0.000100486
11 *649:B *177:10 0
12 *17:49 *177:10 0.000316949
13 *71:21 *537:B 9.66585e-05
14 *71:21 *177:21 4.46854e-05
15 *74:25 *537:B 2.69767e-05
16 *123:25 *537:B 0.000232049
*RES
1 *661:Q *177:10 43.3857 
2 *177:10 *177:12 15 
3 *177:12 *641:A_N 23 
4 *177:12 *177:21 2.07143 
5 *177:21 *642:B 23 
6 *177:21 *537:B 27.93 
*END

*D_NET *178 0.00067243
*CONN
*I *645:A I *D sky130_fd_sc_hd__inv_2
*I *537:A I *D sky130_fd_sc_hd__nor2_1
*I *662:Q O *D sky130_fd_sc_hd__dfrtp_1
*CAP
1 *645:A 0
2 *537:A 6.15324e-05
3 *662:Q 0.000174385
4 *178:12 6.15324e-05
5 *178:10 0.000174385
6 *660:RESET_B *178:10 6.67212e-05
7 *662:RESET_B *178:10 5.12254e-05
8 *74:25 *537:A 8.26478e-05
*RES
1 *662:Q *178:10 41.0036 
2 *178:10 *178:12 15 
3 *178:12 *537:A 24.5743 
4 *178:12 *645:A 23 
*END

*D_NET *179 0.00290552
*CONN
*I *650:A I *D sky130_fd_sc_hd__or2_1
*I *538:A I *D sky130_fd_sc_hd__nor2_1
*I *651:B I *D sky130_fd_sc_hd__nand2_1
*I *663:Q O *D sky130_fd_sc_hd__dfrtp_1
*CAP
1 *650:A 0
2 *538:A 0
3 *651:B 6.69341e-05
4 *663:Q 0.00047678
5 *179:38 0.000125922
6 *179:27 0.000141177
7 *179:10 0.000412273
8 *179:6 0.000806863
9 *653:B *179:27 0.000166742
10 *654:B *179:27 6.51997e-06
11 *663:D *651:B 6.17437e-06
12 *663:D *179:10 0.000113985
13 *663:RESET_B *179:6 0.00014006
14 *35:10 *179:27 2.95423e-05
15 *74:25 *651:B 3.28357e-06
16 *78:8 *651:B 0.000100477
17 *78:8 *179:10 0.000135037
18 *79:10 *179:27 3.673e-05
19 *80:10 *179:27 5.75756e-06
20 *85:10 *179:27 3.26241e-05
21 *143:101 *179:27 9.86322e-05
*RES
1 *663:Q *179:6 29.3386 
2 *179:6 *179:10 4.45357 
3 *179:10 *651:B 24.595 
4 *179:10 *179:27 34.2879 
5 *179:27 *538:A 23 
6 *179:6 *179:38 31.5536 
7 *179:38 *650:A 23 
*END

*D_NET *180 0.00210733
*CONN
*I *654:A I *D sky130_fd_sc_hd__xor2_1
*I *538:B I *D sky130_fd_sc_hd__nor2_1
*I *664:Q O *D sky130_fd_sc_hd__dfrtp_1
*CAP
1 *654:A 0
2 *538:B 0.00032939
3 *664:Q 0.000540638
4 *180:21 0.000107136
5 *180:6 0.000977165
6 *664:RESET_B *180:6 5.1357e-05
7 *35:10 *538:B 5.481e-05
8 *143:101 *538:B 4.6834e-05
*RES
1 *664:Q *180:6 30.2914 
2 *180:6 *538:B 27.8057 
3 *180:6 *180:21 31.9057 
4 *180:21 *654:A 23 
*END

*D_NET *181 0.00226043
*CONN
*I *680:D I *D sky130_fd_sc_hd__dfrtp_1
*I *676:Q O *D sky130_fd_sc_hd__dfrtp_1
*CAP
1 *680:D 0.000350942
2 *676:Q 0.000685403
3 *181:10 0.00103634
4 *181:10 *182:10 0
5 *676:RESET_B *181:10 4.21029e-05
6 *680:CLK *680:D 6.17437e-06
7 *17:259 *181:10 7.30875e-05
8 *17:277 *181:10 6.63801e-05
*RES
1 *676:Q *181:10 49.9729 
2 *181:10 *680:D 43.3857 
*END

*D_NET *182 0.000786379
*CONN
*I *681:D I *D sky130_fd_sc_hd__dfrtp_1
*I *677:Q O *D sky130_fd_sc_hd__dfrtp_1
*CAP
1 *681:D 0
2 *677:Q 0.000310529
3 *182:10 0.000310529
4 *676:CLK *182:10 2.39877e-05
5 *142:14 *182:10 2.64173e-05
6 *142:29 *182:10 0.000114916
7 *181:10 *182:10 0
*RES
1 *677:Q *182:10 44.09 
2 *182:10 *681:D 38 
*END

*D_NET *183 0.000718399
*CONN
*I *682:D I *D sky130_fd_sc_hd__dfrtp_1
*I *678:Q O *D sky130_fd_sc_hd__dfrtp_1
*CAP
1 *682:D 0.00015534
2 *678:Q 0.000123962
3 *183:8 0.000279301
4 *17:223 *183:8 8.21456e-06
5 *26:20 *183:8 3.97296e-05
6 *142:138 *183:8 0.000111852
7 *170:18 *183:8 0
*RES
1 *678:Q *183:8 40.61 
2 *183:8 *682:D 40.0507 
*END

*D_NET *184 0.000511948
*CONN
*I *683:D I *D sky130_fd_sc_hd__dfrtp_1
*I *679:Q O *D sky130_fd_sc_hd__dfrtp_1
*CAP
1 *683:D 0.000226536
2 *679:Q 0.000226536
3 *679:RESET_B *683:D 3.22879e-05
4 *683:CLK *683:D 2.65879e-05
*RES
1 *679:Q *683:D 49.5007 
*END

*D_NET *185 0.00161358
*CONN
*I *590:A2 I *D sky130_fd_sc_hd__o311a_1
*I *567:A I *D sky130_fd_sc_hd__inv_2
*I *680:Q O *D sky130_fd_sc_hd__dfrtp_1
*CAP
1 *590:A2 0
2 *567:A 3.80995e-05
3 *680:Q 8.63323e-05
4 *185:27 0.000279723
5 *185:12 0.000617248
6 *185:8 0.000385758
7 *17:287 *185:8 7.03766e-05
8 *42:18 *185:27 5.5792e-05
9 *103:17 *185:27 0
10 *134:10 *185:27 2.19667e-05
11 *144:93 *185:27 5.82853e-05
*RES
1 *680:Q *185:8 39.9057 
2 *185:8 *185:12 20.3857 
3 *185:12 *567:A 23.6214 
4 *185:12 *185:27 35.1371 
5 *185:27 *590:A2 23 
*END
