*SPEF "ieee 1481-1999"
*DESIGN "pmu_fsm"
*DATE "02:47:12 Tuesday October 14, 2025"
*VENDOR "The OpenROAD Project"
*PROGRAM "OpenROAD"
*VERSION "b16bda7e82721d10566ff7e2b68f1ff0be9f9e38"
*DESIGN_FLOW "NAME_SCOPE LOCAL" "PIN_CAP NONE"
*DIVIDER /
*DELIMITER :
*BUS_DELIMITER []
*T_UNIT 1 NS
*C_UNIT 1 PF
*R_UNIT 1 OHM
*L_UNIT 1 HENRY

*NAME_MAP
*3 clk
*4 clk_gate_en
*5 clk_stable
*6 net21
*7 dvfs_ctrl[1]
*8 error
*9 pwr_gate_en
*10 pwr_stable
*11 pwr_state[0]
*12 pwr_state[1]
*13 req_idle
*14 req_off
*15 req_sleep
*16 reset_ctrl
*17 reset_n
*18 retention_en
*19 retention_ready
*20 retention_restore
*21 retention_save
*22 seq_busy
*23 wake_up
*24 _000_
*25 _001_
*26 _002_
*27 _003_
*28 _004_
*29 _005_
*30 _006_
*31 _007_
*32 _008_
*33 _009_
*34 _010_
*35 _011_
*36 _012_
*37 _013_
*38 _014_
*39 _015_
*40 _016_
*41 _017_
*42 _018_
*43 _019_
*44 _020_
*45 _021_
*46 _022_
*47 _023_
*48 _024_
*49 _025_
*50 _026_
*51 _027_
*52 _028_
*53 _029_
*54 _030_
*55 _031_
*56 _032_
*57 _033_
*58 _034_
*59 _035_
*60 _036_
*61 _037_
*62 _038_
*63 _039_
*64 _040_
*65 _041_
*66 _042_
*67 _043_
*68 _044_
*69 _045_
*70 _046_
*71 _047_
*72 _048_
*73 _049_
*74 _050_
*75 _051_
*76 _052_
*77 _053_
*78 _054_
*79 _055_
*80 _056_
*81 _057_
*82 _058_
*83 _059_
*84 _060_
*85 _061_
*86 _062_
*87 _063_
*88 _064_
*89 _065_
*90 _066_
*91 _067_
*92 _068_
*93 _069_
*94 _070_
*95 _071_
*96 _072_
*97 _073_
*98 _074_
*99 _075_
*100 _076_
*101 _077_
*102 _078_
*103 _079_
*104 _080_
*105 _081_
*106 _082_
*107 _083_
*108 _084_
*109 _085_
*110 _086_
*111 _087_
*112 _088_
*113 _089_
*114 _090_
*115 _091_
*116 _092_
*117 _093_
*118 _094_
*119 _095_
*120 _096_
*121 _097_
*122 _098_
*123 _099_
*124 _100_
*125 _101_
*126 _102_
*127 _103_
*128 _104_
*129 _105_
*130 _106_
*131 _107_
*132 _108_
*133 _109_
*134 _110_
*135 _111_
*136 _112_
*137 _113_
*138 _114_
*139 _115_
*140 _116_
*141 clknet_0_clk
*142 clknet_1_0__leaf_clk
*143 clknet_1_1__leaf_clk
*144 curr_state\[0\]
*145 curr_state\[1\]
*146 curr_state\[2\]
*147 net1
*148 net10
*149 net11
*150 net12
*151 net13
*152 net14
*153 net15
*154 net16
*155 net17
*156 net18
*157 net19
*158 net2
*159 net20
*160 net3
*161 net4
*162 net5
*163 net6
*164 net7
*165 net8
*166 net9
*167 next_state\[0\]
*168 next_state\[1\]
*169 next_state\[2\]
*170 req_idle_sync
*171 req_off_sync
*172 req_sleep_sync
*173 seq_timer\[0\]
*174 seq_timer\[1\]
*175 seq_timer\[2\]
*176 seq_timer\[3\]
*177 seq_timer\[4\]
*178 seq_timer\[5\]
*179 seq_timer\[6\]
*180 seq_timer\[7\]
*181 sync_stage1\[0\]
*182 sync_stage1\[1\]
*183 sync_stage1\[2\]
*184 sync_stage1\[3\]
*185 wake_up_sync
*186 FILLER_0_0_105
*187 FILLER_0_0_111
*188 FILLER_0_0_113
*189 FILLER_0_0_121
*190 FILLER_0_0_126
*191 FILLER_0_0_27
*192 FILLER_0_0_3
*193 FILLER_0_0_52
*194 FILLER_0_0_57
*195 FILLER_0_0_69
*196 FILLER_0_10_100
*197 FILLER_0_10_112
*198 FILLER_0_10_124
*199 FILLER_0_10_18
*200 FILLER_0_10_25
*201 FILLER_0_10_29
*202 FILLER_0_10_33
*203 FILLER_0_10_37
*204 FILLER_0_10_41
*205 FILLER_0_10_53
*206 FILLER_0_10_57
*207 FILLER_0_10_7
*208 FILLER_0_10_88
*209 FILLER_0_11_109
*210 FILLER_0_11_11
*211 FILLER_0_11_113
*212 FILLER_0_11_120
*213 FILLER_0_11_124
*214 FILLER_0_11_17
*215 FILLER_0_11_23
*216 FILLER_0_11_27
*217 FILLER_0_11_3
*218 FILLER_0_11_33
*219 FILLER_0_11_37
*220 FILLER_0_11_49
*221 FILLER_0_11_55
*222 FILLER_0_11_57
*223 FILLER_0_11_85
*224 FILLER_0_11_97
*225 FILLER_0_12_100
*226 FILLER_0_12_112
*227 FILLER_0_12_124
*228 FILLER_0_12_18
*229 FILLER_0_12_26
*230 FILLER_0_12_37
*231 FILLER_0_12_49
*232 FILLER_0_12_6
*233 FILLER_0_12_61
*234 FILLER_0_12_67
*235 FILLER_0_12_83
*236 FILLER_0_12_88
*237 FILLER_0_13_103
*238 FILLER_0_13_111
*239 FILLER_0_13_113
*240 FILLER_0_13_125
*241 FILLER_0_13_24
*242 FILLER_0_13_28
*243 FILLER_0_13_43
*244 FILLER_0_13_83
*245 FILLER_0_13_87
*246 FILLER_0_13_91
*247 FILLER_0_14_109
*248 FILLER_0_14_121
*249 FILLER_0_14_127
*250 FILLER_0_14_29
*251 FILLER_0_14_3
*252 FILLER_0_14_7
*253 FILLER_0_14_80
*254 FILLER_0_14_85
*255 FILLER_0_14_97
*256 FILLER_0_15_102
*257 FILLER_0_15_110
*258 FILLER_0_15_113
*259 FILLER_0_15_125
*260 FILLER_0_15_18
*261 FILLER_0_15_32
*262 FILLER_0_15_44
*263 FILLER_0_15_51
*264 FILLER_0_15_55
*265 FILLER_0_15_57
*266 FILLER_0_15_68
*267 FILLER_0_15_7
*268 FILLER_0_15_90
*269 FILLER_0_16_109
*270 FILLER_0_16_121
*271 FILLER_0_16_127
*272 FILLER_0_16_19
*273 FILLER_0_16_23
*274 FILLER_0_16_27
*275 FILLER_0_16_29
*276 FILLER_0_16_37
*277 FILLER_0_16_51
*278 FILLER_0_16_58
*279 FILLER_0_16_7
*280 FILLER_0_16_72
*281 FILLER_0_16_85
*282 FILLER_0_16_97
*283 FILLER_0_17_106
*284 FILLER_0_17_113
*285 FILLER_0_17_125
*286 FILLER_0_17_23
*287 FILLER_0_17_28
*288 FILLER_0_17_36
*289 FILLER_0_17_41
*290 FILLER_0_17_53
*291 FILLER_0_17_57
*292 FILLER_0_17_64
*293 FILLER_0_17_70
*294 FILLER_0_17_82
*295 FILLER_0_17_86
*296 FILLER_0_17_94
*297 FILLER_0_18_107
*298 FILLER_0_18_119
*299 FILLER_0_18_127
*300 FILLER_0_18_15
*301 FILLER_0_18_22
*302 FILLER_0_18_29
*303 FILLER_0_18_3
*304 FILLER_0_18_41
*305 FILLER_0_18_53
*306 FILLER_0_18_59
*307 FILLER_0_18_66
*308 FILLER_0_18_85
*309 FILLER_0_19_104
*310 FILLER_0_19_113
*311 FILLER_0_19_125
*312 FILLER_0_19_13
*313 FILLER_0_19_35
*314 FILLER_0_19_47
*315 FILLER_0_19_7
*316 FILLER_0_19_73
*317 FILLER_0_19_77
*318 FILLER_0_1_108
*319 FILLER_0_1_113
*320 FILLER_0_1_15
*321 FILLER_0_1_57
*322 FILLER_0_1_69
*323 FILLER_0_1_75
*324 FILLER_0_1_96
*325 FILLER_0_20_108
*326 FILLER_0_20_120
*327 FILLER_0_20_23
*328 FILLER_0_20_49
*329 FILLER_0_20_75
*330 FILLER_0_20_83
*331 FILLER_0_20_85
*332 FILLER_0_20_96
*333 FILLER_0_21_109
*334 FILLER_0_21_11
*335 FILLER_0_21_113
*336 FILLER_0_21_23
*337 FILLER_0_21_27
*338 FILLER_0_21_29
*339 FILLER_0_21_41
*340 FILLER_0_21_53
*341 FILLER_0_21_57
*342 FILLER_0_21_62
*343 FILLER_0_21_74
*344 FILLER_0_21_82
*345 FILLER_0_21_85
*346 FILLER_0_21_97
*347 FILLER_0_2_106
*348 FILLER_0_2_118
*349 FILLER_0_2_126
*350 FILLER_0_2_23
*351 FILLER_0_2_27
*352 FILLER_0_2_29
*353 FILLER_0_2_41
*354 FILLER_0_2_47
*355 FILLER_0_2_51
*356 FILLER_0_2_55
*357 FILLER_0_2_79
*358 FILLER_0_2_83
*359 FILLER_0_2_85
*360 FILLER_0_3_109
*361 FILLER_0_3_113
*362 FILLER_0_3_125
*363 FILLER_0_3_23
*364 FILLER_0_3_35
*365 FILLER_0_3_47
*366 FILLER_0_3_51
*367 FILLER_0_3_55
*368 FILLER_0_3_65
*369 FILLER_0_3_69
*370 FILLER_0_3_74
*371 FILLER_0_3_86
*372 FILLER_0_4_109
*373 FILLER_0_4_121
*374 FILLER_0_4_127
*375 FILLER_0_4_21
*376 FILLER_0_4_27
*377 FILLER_0_4_29
*378 FILLER_0_4_44
*379 FILLER_0_4_78
*380 FILLER_0_4_85
*381 FILLER_0_4_9
*382 FILLER_0_4_97
*383 FILLER_0_5_101
*384 FILLER_0_5_109
*385 FILLER_0_5_113
*386 FILLER_0_5_125
*387 FILLER_0_5_23
*388 FILLER_0_5_53
*389 FILLER_0_5_57
*390 FILLER_0_5_77
*391 FILLER_0_5_89
*392 FILLER_0_6_109
*393 FILLER_0_6_121
*394 FILLER_0_6_127
*395 FILLER_0_6_19
*396 FILLER_0_6_27
*397 FILLER_0_6_29
*398 FILLER_0_6_33
*399 FILLER_0_6_37
*400 FILLER_0_6_49
*401 FILLER_0_6_55
*402 FILLER_0_6_7
*403 FILLER_0_6_80
*404 FILLER_0_6_85
*405 FILLER_0_6_97
*406 FILLER_0_7_103
*407 FILLER_0_7_111
*408 FILLER_0_7_113
*409 FILLER_0_7_125
*410 FILLER_0_7_19
*411 FILLER_0_7_31
*412 FILLER_0_7_40
*413 FILLER_0_7_51
*414 FILLER_0_7_55
*415 FILLER_0_7_57
*416 FILLER_0_7_63
*417 FILLER_0_7_7
*418 FILLER_0_7_72
*419 FILLER_0_7_81
*420 FILLER_0_8_108
*421 FILLER_0_8_120
*422 FILLER_0_8_27
*423 FILLER_0_8_29
*424 FILLER_0_8_35
*425 FILLER_0_8_39
*426 FILLER_0_8_48
*427 FILLER_0_8_55
*428 FILLER_0_8_59
*429 FILLER_0_8_64
*430 FILLER_0_8_71
*431 FILLER_0_8_82
*432 FILLER_0_9_108
*433 FILLER_0_9_113
*434 FILLER_0_9_125
*435 FILLER_0_9_33
*436 FILLER_0_9_41
*437 FILLER_0_9_45
*438 FILLER_0_9_57
*439 FILLER_0_9_79
*440 FILLER_0_9_84
*441 FILLER_0_9_96
*442 PHY_EDGE_ROW_0_Left_22
*443 PHY_EDGE_ROW_0_Right_0
*444 PHY_EDGE_ROW_10_Left_32
*445 PHY_EDGE_ROW_10_Right_10
*446 PHY_EDGE_ROW_11_Left_33
*447 PHY_EDGE_ROW_11_Right_11
*448 PHY_EDGE_ROW_12_Left_34
*449 PHY_EDGE_ROW_12_Right_12
*450 PHY_EDGE_ROW_13_Left_35
*451 PHY_EDGE_ROW_13_Right_13
*452 PHY_EDGE_ROW_14_Left_36
*453 PHY_EDGE_ROW_14_Right_14
*454 PHY_EDGE_ROW_15_Left_37
*455 PHY_EDGE_ROW_15_Right_15
*456 PHY_EDGE_ROW_16_Left_38
*457 PHY_EDGE_ROW_16_Right_16
*458 PHY_EDGE_ROW_17_Left_39
*459 PHY_EDGE_ROW_17_Right_17
*460 PHY_EDGE_ROW_18_Left_40
*461 PHY_EDGE_ROW_18_Right_18
*462 PHY_EDGE_ROW_19_Left_41
*463 PHY_EDGE_ROW_19_Right_19
*464 PHY_EDGE_ROW_1_Left_23
*465 PHY_EDGE_ROW_1_Right_1
*466 PHY_EDGE_ROW_20_Left_42
*467 PHY_EDGE_ROW_20_Right_20
*468 PHY_EDGE_ROW_21_Left_43
*469 PHY_EDGE_ROW_21_Right_21
*470 PHY_EDGE_ROW_2_Left_24
*471 PHY_EDGE_ROW_2_Right_2
*472 PHY_EDGE_ROW_3_Left_25
*473 PHY_EDGE_ROW_3_Right_3
*474 PHY_EDGE_ROW_4_Left_26
*475 PHY_EDGE_ROW_4_Right_4
*476 PHY_EDGE_ROW_5_Left_27
*477 PHY_EDGE_ROW_5_Right_5
*478 PHY_EDGE_ROW_6_Left_28
*479 PHY_EDGE_ROW_6_Right_6
*480 PHY_EDGE_ROW_7_Left_29
*481 PHY_EDGE_ROW_7_Right_7
*482 PHY_EDGE_ROW_8_Left_30
*483 PHY_EDGE_ROW_8_Right_8
*484 PHY_EDGE_ROW_9_Left_31
*485 PHY_EDGE_ROW_9_Right_9
*486 TAP_TAPCELL_ROW_0_44
*487 TAP_TAPCELL_ROW_0_45
*488 TAP_TAPCELL_ROW_0_46
*489 TAP_TAPCELL_ROW_0_47
*490 TAP_TAPCELL_ROW_10_66
*491 TAP_TAPCELL_ROW_10_67
*492 TAP_TAPCELL_ROW_11_68
*493 TAP_TAPCELL_ROW_11_69
*494 TAP_TAPCELL_ROW_12_70
*495 TAP_TAPCELL_ROW_12_71
*496 TAP_TAPCELL_ROW_13_72
*497 TAP_TAPCELL_ROW_13_73
*498 TAP_TAPCELL_ROW_14_74
*499 TAP_TAPCELL_ROW_14_75
*500 TAP_TAPCELL_ROW_15_76
*501 TAP_TAPCELL_ROW_15_77
*502 TAP_TAPCELL_ROW_16_78
*503 TAP_TAPCELL_ROW_16_79
*504 TAP_TAPCELL_ROW_17_80
*505 TAP_TAPCELL_ROW_17_81
*506 TAP_TAPCELL_ROW_18_82
*507 TAP_TAPCELL_ROW_18_83
*508 TAP_TAPCELL_ROW_19_84
*509 TAP_TAPCELL_ROW_19_85
*510 TAP_TAPCELL_ROW_1_48
*511 TAP_TAPCELL_ROW_1_49
*512 TAP_TAPCELL_ROW_20_86
*513 TAP_TAPCELL_ROW_20_87
*514 TAP_TAPCELL_ROW_21_88
*515 TAP_TAPCELL_ROW_21_89
*516 TAP_TAPCELL_ROW_21_90
*517 TAP_TAPCELL_ROW_21_91
*518 TAP_TAPCELL_ROW_2_50
*519 TAP_TAPCELL_ROW_2_51
*520 TAP_TAPCELL_ROW_3_52
*521 TAP_TAPCELL_ROW_3_53
*522 TAP_TAPCELL_ROW_4_54
*523 TAP_TAPCELL_ROW_4_55
*524 TAP_TAPCELL_ROW_5_56
*525 TAP_TAPCELL_ROW_5_57
*526 TAP_TAPCELL_ROW_6_58
*527 TAP_TAPCELL_ROW_6_59
*528 TAP_TAPCELL_ROW_7_60
*529 TAP_TAPCELL_ROW_7_61
*530 TAP_TAPCELL_ROW_8_62
*531 TAP_TAPCELL_ROW_8_63
*532 TAP_TAPCELL_ROW_9_64
*533 TAP_TAPCELL_ROW_9_65
*534 _117_
*535 _118_
*536 _119_
*537 _120_
*538 _121_
*539 _122_
*540 _123_
*541 _124_
*542 _125_
*543 _126_
*544 _127_
*545 _128_
*546 _129_
*547 _130_
*548 _131_
*549 _132_
*550 _133_
*551 _134_
*552 _135_
*553 _136_
*554 _137_
*555 _138_
*556 _139_
*557 _140_
*558 _141_
*559 _142_
*560 _143_
*561 _144_
*562 _145_
*563 _146_
*564 _147_
*565 _148_
*566 _149_
*567 _150_
*568 _151_
*569 _152_
*570 _153_
*571 _154_
*572 _155_
*573 _156_
*574 _157_
*575 _158_
*576 _159_
*577 _160_
*578 _161_
*579 _162_
*580 _163_
*581 _164_
*582 _165_
*583 _166_
*584 _167_
*585 _168_
*586 _169_
*587 _170_
*588 _171_
*589 _172_
*590 _173_
*591 _174_
*592 _175_
*593 _176_
*594 _177_
*595 _178_
*596 _179_
*597 _180_
*598 _181_
*599 _182_
*600 _183_
*601 _184_
*602 _185_
*603 _186_
*604 _187_
*605 _188_
*606 _189_
*607 _190_
*608 _191_
*609 _192_
*610 _193_
*611 _194_
*612 _195_
*613 _196_
*614 _197_
*615 _198_
*616 _199_
*617 _200_
*618 _201_
*619 _202_
*620 _203_
*621 _204_
*622 _205_
*623 _206_
*624 _207_
*625 _208_
*626 _209_
*627 _210_
*628 _211_
*629 _212_
*630 _213_
*631 _214_
*632 _215_
*633 _216_
*634 _217_
*635 _218_
*636 _219_
*637 _220_
*638 _221_
*639 _222_
*640 _223_
*641 _224_
*642 _225_
*643 _226_
*644 _227_
*645 _228_
*646 _229_
*647 _230_
*648 _231_
*649 _232_
*650 _233_
*651 _234_
*652 _235_
*653 _236_
*654 _237_
*655 _238_
*656 _239_
*657 _240_
*658 _241_
*659 _242_
*660 _243_
*661 _244_
*662 _245_
*663 _246_
*664 _247_
*665 _248_
*666 _249_
*667 _250_
*668 _251_
*669 _252_
*670 _253_
*671 _254_
*672 _255_
*673 _256_
*674 _257_
*675 _258_
*676 _259_
*677 _260_
*678 _261_
*679 _262_
*680 _263_
*681 _264_
*682 _265_
*683 _266_
*684 clkbuf_0_clk
*685 clkbuf_1_0__f_clk
*686 clkbuf_1_1__f_clk
*687 clkload0
*688 input1
*689 input2
*690 input3
*691 input4
*692 input5
*693 input6
*694 input7
*695 output10
*696 output11
*697 output12
*698 output13
*699 output14
*700 output15
*701 output16
*702 output17
*703 output18
*704 output8
*705 output9
*706 pmu_fsm_21
*707 wire19
*708 wire20

*PORTS
clk I
clk_gate_en O
clk_stable I
dvfs_ctrl[0] O
dvfs_ctrl[1] O
error O
pwr_gate_en O
pwr_stable I
pwr_state[0] O
pwr_state[1] O
req_idle I
req_off I
req_sleep I
reset_ctrl O
reset_n I
retention_en O
retention_ready I
retention_restore O
retention_save O
seq_busy O
wake_up I

*D_NET *3 0.00818401
*CONN
*P clk I
*I *684:A I *D sky130_fd_sc_hd__clkbuf_16
*CAP
1 clk 0.00339967
2 *684:A 0
3 *3:23 0.00339967
4 *3:23 *629:A 1.22852e-05
5 *3:23 *630:A 0.000186697
6 *3:23 *630:B 0.000147784
7 *3:23 *644:A 0.00012501
8 *3:23 *644:B 0.000115967
9 *3:23 *672:RESET_B 7.76776e-05
10 *3:23 *686:A 0
11 *3:23 *703:A 0
12 *3:23 *17:80 0.000168036
13 *3:23 *59:58 9.62555e-05
14 *3:23 *60:10 4.29537e-05
15 *3:23 *92:18 0.000361933
16 *3:23 *128:8 5.0077e-05
*RES
1 clk *3:23 45.3243 
2 *3:23 *684:A 9.3 
*END

*D_NET *4 0.00414609
*CONN
*P clk_gate_en O
*I *704:X O *D sky130_fd_sc_hd__buf_4
*CAP
1 clk_gate_en 0.00171858
2 *704:X 0.00171858
3 clk_gate_en pwr_gate_en 0.000355319
4 clk_gate_en *665:D 0.000324167
5 clk_gate_en *665:RESET_B 0
6 clk_gate_en *679:RESET_B 0
7 clk_gate_en *17:160 0
8 clk_gate_en *142:45 2.94387e-05
9 clk_gate_en *142:65 0
10 clk_gate_en *142:87 0
*RES
1 *704:X clk_gate_en 42.2938 
*END

*D_NET *5 0.000495631
*CONN
*P clk_stable I
*I *688:A I *D sky130_fd_sc_hd__clkbuf_1
*CAP
1 clk_stable 0.000234644
2 *688:A 0.000234644
3 *688:A *158:16 2.63433e-05
*RES
1 clk_stable *688:A 18.9615 
*END

*D_NET *6 0.000572832
*CONN
*P dvfs_ctrl[0] O
*I *706:HI O *D sky130_fd_sc_hd__conb_1
*CAP
1 dvfs_ctrl[0] 0.000286416
2 *706:HI 0.000286416
3 dvfs_ctrl[0] dvfs_ctrl[1] 0
4 dvfs_ctrl[0] reset_ctrl 0
*RES
1 *706:HI dvfs_ctrl[0] 20.4803 
*END

*D_NET *7 0.000680827
*CONN
*P dvfs_ctrl[1] O
*I *705:X O *D sky130_fd_sc_hd__clkbuf_2
*CAP
1 dvfs_ctrl[1] 0.000340414
2 *705:X 0.000340414
3 dvfs_ctrl[1] pwr_state[0] 0
4 dvfs_ctrl[1] *705:A 0
5 dvfs_ctrl[0] dvfs_ctrl[1] 0
*RES
1 *705:X dvfs_ctrl[1] 21.391 
*END

*D_NET *8 0.00126558
*CONN
*P error O
*I *695:X O *D sky130_fd_sc_hd__clkbuf_2
*CAP
1 error 0.000573186
2 *695:X 0.000573186
3 error seq_busy 0.000119213
*RES
1 *695:X error 25.5686 
*END

*D_NET *9 0.00219718
*CONN
*P pwr_gate_en O
*I *696:X O *D sky130_fd_sc_hd__buf_4
*CAP
1 pwr_gate_en 0.000870448
2 *696:X 0.000870448
3 pwr_gate_en retention_en 0
4 pwr_gate_en *696:A 0.00010096
5 clk_gate_en pwr_gate_en 0.000355319
*RES
1 *696:X pwr_gate_en 26.0431 
*END

*D_NET *10 0.000492954
*CONN
*P pwr_stable I
*I *689:A I *D sky130_fd_sc_hd__clkbuf_1
*CAP
1 pwr_stable 0.000246477
2 *689:A 0.000246477
*RES
1 pwr_stable *689:A 18.9615 
*END

*D_NET *11 0.000597429
*CONN
*P pwr_state[0] O
*I *697:X O *D sky130_fd_sc_hd__clkbuf_2
*CAP
1 pwr_state[0] 0.000298715
2 *697:X 0.000298715
3 pwr_state[0] pwr_state[1] 0
4 pwr_state[0] *697:A 0
5 dvfs_ctrl[1] pwr_state[0] 0
*RES
1 *697:X pwr_state[0] 20.5132 
*END

*D_NET *12 0.000580317
*CONN
*P pwr_state[1] O
*I *698:X O *D sky130_fd_sc_hd__clkbuf_2
*CAP
1 pwr_state[1] 0.000290158
2 *698:X 0.000290158
3 pwr_state[1] seq_busy 0
4 pwr_state[0] pwr_state[1] 0
*RES
1 *698:X pwr_state[1] 20.4803 
*END

*D_NET *13 0.00108164
*CONN
*P req_idle I
*I *690:A I *D sky130_fd_sc_hd__clkbuf_1
*CAP
1 req_idle 0.00051018
2 *690:A 0.00051018
3 *690:A *679:CLK 6.05161e-06
4 *690:A *679:D 5.52238e-05
*RES
1 req_idle *690:A 23.4429 
*END

*D_NET *14 0.000843346
*CONN
*P req_off I
*I *691:A I *D sky130_fd_sc_hd__clkbuf_1
*CAP
1 req_off 0.000421673
2 *691:A 0.000421673
3 *691:A *676:RESET_B 0
*RES
1 req_off *691:A 21.8357 
*END

*D_NET *15 0.00121864
*CONN
*P req_sleep I
*I *692:A I *D sky130_fd_sc_hd__clkbuf_1
*CAP
1 req_sleep 0.000580152
2 *692:A 0.000580152
3 *692:A *678:D 5.83304e-05
*RES
1 req_sleep *692:A 32.6036 
*END

*D_NET *16 0.000867858
*CONN
*P reset_ctrl O
*I *699:X O *D sky130_fd_sc_hd__buf_2
*CAP
1 reset_ctrl 0.000433929
2 *699:X 0.000433929
3 reset_ctrl retention_restore 0
4 reset_ctrl *699:A 0
5 dvfs_ctrl[0] reset_ctrl 0
*RES
1 *699:X reset_ctrl 21.9088 
*END

*D_NET *17 0.0349496
*CONN
*P reset_n I
*I *659:RESET_B I *D sky130_fd_sc_hd__dfrtp_1
*I *670:RESET_B I *D sky130_fd_sc_hd__dfrtp_1
*I *669:RESET_B I *D sky130_fd_sc_hd__dfrtp_1
*I *668:RESET_B I *D sky130_fd_sc_hd__dfrtp_1
*I *667:RESET_B I *D sky130_fd_sc_hd__dfrtp_1
*I *673:RESET_B I *D sky130_fd_sc_hd__dfrtp_4
*I *675:RESET_B I *D sky130_fd_sc_hd__dfrtp_4
*I *674:RESET_B I *D sky130_fd_sc_hd__dfrtp_1
*I *680:RESET_B I *D sky130_fd_sc_hd__dfrtp_1
*I *677:RESET_B I *D sky130_fd_sc_hd__dfrtp_1
*I *676:RESET_B I *D sky130_fd_sc_hd__dfrtp_1
*I *681:RESET_B I *D sky130_fd_sc_hd__dfrtp_1
*I *682:RESET_B I *D sky130_fd_sc_hd__dfrtp_1
*I *678:RESET_B I *D sky130_fd_sc_hd__dfrtp_1
*I *683:RESET_B I *D sky130_fd_sc_hd__dfrtp_1
*I *679:RESET_B I *D sky130_fd_sc_hd__dfrtp_1
*I *666:RESET_B I *D sky130_fd_sc_hd__dfrtp_1
*I *665:RESET_B I *D sky130_fd_sc_hd__dfrtp_1
*I *656:SET_B I *D sky130_fd_sc_hd__dfstp_1
*I *660:RESET_B I *D sky130_fd_sc_hd__dfrtp_1
*I *672:RESET_B I *D sky130_fd_sc_hd__dfrtp_1
*I *657:RESET_B I *D sky130_fd_sc_hd__dfrtp_1
*I *671:RESET_B I *D sky130_fd_sc_hd__dfrtp_1
*I *658:RESET_B I *D sky130_fd_sc_hd__dfrtp_1
*I *661:RESET_B I *D sky130_fd_sc_hd__dfrtp_1
*I *662:RESET_B I *D sky130_fd_sc_hd__dfrtp_1
*I *663:RESET_B I *D sky130_fd_sc_hd__dfrtp_1
*I *664:RESET_B I *D sky130_fd_sc_hd__dfrtp_1
*CAP
1 reset_n 0.000617385
2 *659:RESET_B 5.9045e-06
3 *670:RESET_B 0
4 *669:RESET_B 0
5 *668:RESET_B 0
6 *667:RESET_B 0
7 *673:RESET_B 0.00052823
8 *675:RESET_B 0.000107235
9 *674:RESET_B 0
10 *680:RESET_B 3.59779e-05
11 *677:RESET_B 0
12 *676:RESET_B 0.000201418
13 *681:RESET_B 0.00039988
14 *682:RESET_B 3.01162e-05
15 *678:RESET_B 1.1053e-05
16 *683:RESET_B 0.000209983
17 *679:RESET_B 0.000237014
18 *666:RESET_B 0.000393868
19 *665:RESET_B 0.000859266
20 *656:SET_B 0.0010607
21 *660:RESET_B 0.00180078
22 *672:RESET_B 0.000422626
23 *657:RESET_B 0.000375145
24 *671:RESET_B 0.00011367
25 *658:RESET_B 0.000775783
26 *661:RESET_B 6.58535e-06
27 *662:RESET_B 0.000638566
28 *663:RESET_B 9.20438e-05
29 *664:RESET_B 0.000205774
30 *17:287 0.000622114
31 *17:277 0.000683245
32 *17:259 0.000330645
33 *17:257 0.000316275
34 *17:237 0.000753316
35 *17:223 0.000740924
36 *17:203 0.000858264
37 *17:199 0.00111822
38 *17:173 0.00112506
39 *17:160 0.000460039
40 *17:158 0.000620792
41 *17:156 0.000527049
42 *17:154 0.000685261
43 *17:130 0.00186179
44 *17:80 0.000754033
45 *17:74 0.000859269
46 *17:49 0.00119811
47 *17:37 0.0010219
48 *17:11 0.000399989
49 *17:9 0.00118808
50 *656:SET_B *618:A 0.000100831
51 *656:SET_B *620:A 9.91086e-05
52 *656:SET_B *656:D 7.81913e-05
53 *656:SET_B *657:CLK 0.000119125
54 *656:SET_B *670:CLK 2.59355e-05
55 *656:SET_B *143:25 0.000160564
56 *656:SET_B *143:33 4.87953e-05
57 *656:SET_B *159:27 0.000350734
58 *657:RESET_B *657:D 0
59 *657:RESET_B *159:27 0.000127253
60 *657:RESET_B *159:38 0.000216306
61 *658:RESET_B *644:B 6.31439e-05
62 *658:RESET_B *661:D 9.87672e-05
63 *658:RESET_B *143:116 0.000198623
64 *658:RESET_B *157:14 0
65 *659:RESET_B *143:25 2.72654e-05
66 *660:RESET_B *650:B 5.29451e-05
67 *660:RESET_B *73:12 4.96258e-05
68 *660:RESET_B *85:12 5.12583e-05
69 *660:RESET_B *86:10 6.44347e-05
70 *660:RESET_B *143:114 0
71 *660:RESET_B *148:18 0.000337402
72 *660:RESET_B *178:12 6.42035e-05
73 *661:RESET_B *143:116 2.72654e-05
74 *662:RESET_B *143:114 0.000179995
75 *662:RESET_B *178:12 5.03772e-05
76 *663:RESET_B *179:6 0.000136772
77 *664:RESET_B *180:6 5.00444e-05
78 *665:RESET_B *700:A 0
79 *666:RESET_B *666:D 3.08664e-05
80 *666:RESET_B *142:37 0.000265731
81 *666:RESET_B *142:45 0
82 *672:RESET_B *644:B 0
83 *672:RESET_B *658:CLK 6.33385e-05
84 *672:RESET_B *703:A 0
85 *672:RESET_B *143:118 3.14078e-05
86 *673:RESET_B *561:A 0
87 *673:RESET_B *562:B 0
88 *673:RESET_B *605:A1 0.000218622
89 *673:RESET_B *105:14 0
90 *675:RESET_B *675:CLK 4.87528e-05
91 *675:RESET_B *675:D 2.90582e-05
92 *675:RESET_B *146:8 9.18583e-05
93 *676:RESET_B *680:D 4.14471e-05
94 *678:RESET_B *666:D 1.52723e-05
95 *678:RESET_B *142:33 4.85567e-05
96 *679:RESET_B *679:CLK 6.66717e-06
97 *679:RESET_B *683:CLK 0.000119193
98 *679:RESET_B *683:D 3.18676e-05
99 *679:RESET_B *142:45 5.14847e-05
100 *681:RESET_B *564:A 6.29133e-05
101 *681:RESET_B *171:12 0.000270871
102 *682:RESET_B *109:12 9.50011e-06
103 *682:RESET_B *171:12 3.69047e-06
104 *683:RESET_B *561:A 6.67056e-05
105 *17:37 *650:B 0.000487467
106 *17:37 *652:A 5.71472e-05
107 *17:37 *652:B 0.000340154
108 *17:37 *653:A 0.000162282
109 *17:37 *143:114 0.000447622
110 *17:49 *143:114 0.000255276
111 *17:49 *143:116 0.000224521
112 *17:49 *177:12 0.000317039
113 *17:74 *644:A 4.94761e-05
114 *17:80 *631:A 0.000139338
115 *17:80 *671:CLK 5.23822e-05
116 *17:80 *671:D 5.79335e-05
117 *17:80 *49:22 0.000141158
118 *17:130 *536:A 2.58821e-05
119 *17:130 *536:B 0.000185894
120 *17:130 *580:B 9.02232e-05
121 *17:130 *59:14 0
122 *17:130 *124:10 9.25014e-06
123 *17:130 *143:16 0.000268682
124 *17:130 *143:25 0.00020199
125 *17:130 *148:18 0.000135549
126 *17:130 *176:16 9.69119e-06
127 *17:154 *656:D 0.000324167
128 *17:154 *668:D 0
129 *17:154 *669:D 0
130 *17:154 *670:CLK 0
131 *17:154 *49:22 0
132 *17:156 *668:D 0
133 *17:156 *669:D 0
134 *17:160 retention_save 0
135 *17:160 *142:87 0
136 *17:173 *665:CLK 3.67142e-05
137 *17:203 *561:A 0
138 *17:223 *682:D 8.22793e-06
139 *17:237 *666:D 4.97621e-05
140 *17:237 *142:31 0.000739952
141 *17:237 *142:33 0.000139913
142 *17:259 *680:D 7.26841e-05
143 *17:277 *680:D 6.58289e-05
144 *17:287 *185:12 6.74911e-05
145 clk_gate_en *665:RESET_B 0
146 clk_gate_en *679:RESET_B 0
147 clk_gate_en *17:160 0
148 *691:A *676:RESET_B 0
149 *3:23 *672:RESET_B 7.76776e-05
150 *3:23 *17:80 0.000168036
*RES
1 reset_n *17:9 11.8036 
2 *17:9 *17:11 1.64286 
3 *17:11 *664:RESET_B 8.4375 
4 *17:11 *663:RESET_B 6.20536 
5 *17:9 *17:37 17.5 
6 *17:37 *662:RESET_B 1.70536 
7 *662:RESET_B *17:49 11.2054 
8 *17:49 *661:RESET_B 0.473214 
9 *17:49 *658:RESET_B 17.7679 
10 *658:RESET_B *17:74 7.45536 
11 *17:74 *17:80 11.4643 
12 *17:80 *671:RESET_B 1.70536 
13 *17:80 *657:RESET_B 17.3214 
14 *17:74 *672:RESET_B 11.1696 
15 *17:37 *660:RESET_B 20.9643 
16 *660:RESET_B *17:130 28.2768 
17 *17:130 *656:SET_B 20.1161 
18 *656:SET_B *17:154 15 
19 *17:154 *17:156 3.46429 
20 *17:156 *17:158 6.5 
21 *17:158 *17:160 4.98214 
22 *17:160 *665:RESET_B 7.96429 
23 *665:RESET_B *17:173 8.41964 
24 *17:173 *666:RESET_B 12.8661 
25 *666:RESET_B *679:RESET_B 14.2768 
26 *17:173 *17:199 7.91071 
27 *17:199 *17:203 3.66964 
28 *17:203 *683:RESET_B 8.28571 
29 *17:203 *17:223 12.1483 
30 *17:223 *678:RESET_B 0.473214 
31 *17:223 *17:237 18.9821 
32 *17:237 *682:RESET_B 0.473214 
33 *17:237 *681:RESET_B 7.59821 
34 *681:RESET_B *17:257 5.40179 
35 *17:257 *17:259 2.55357 
36 *17:259 *676:RESET_B 8.32143 
37 *17:259 *677:RESET_B 4.5 
38 *17:257 *17:277 2.85714 
39 *17:277 *680:RESET_B 4.97321 
40 *17:277 *17:287 9.83929 
41 *17:287 *674:RESET_B 4.5 
42 *17:287 *675:RESET_B 7.02679 
43 *17:199 *673:RESET_B 14.6696 
44 *17:160 *667:RESET_B 4.5 
45 *17:158 *668:RESET_B 4.5 
46 *17:156 *669:RESET_B 4.5 
47 *17:154 *670:RESET_B 4.5 
48 *17:130 *659:RESET_B 0.473214 
*END

*D_NET *18 0.000825652
*CONN
*P retention_en O
*I *700:X O *D sky130_fd_sc_hd__buf_4
*CAP
1 retention_en 0.000385214
2 *700:X 0.000385214
3 retention_en retention_save 0
4 retention_en *700:A 5.52238e-05
5 pwr_gate_en retention_en 0
*RES
1 *700:X retention_en 22.016 
*END

*D_NET *19 0.000504879
*CONN
*P retention_ready I
*I *693:A I *D sky130_fd_sc_hd__buf_1
*CAP
1 retention_ready 0.000246342
2 *693:A 0.000246342
3 *693:A *163:10 1.21955e-05
*RES
1 retention_ready *693:A 18.9615 
*END

*D_NET *20 0.000824029
*CONN
*P retention_restore O
*I *701:X O *D sky130_fd_sc_hd__buf_2
*CAP
1 retention_restore 0.000412015
2 *701:X 0.000412015
3 retention_restore retention_save 0
4 reset_ctrl retention_restore 0
*RES
1 *701:X retention_restore 21.6053 
*END

*D_NET *21 0.000912938
*CONN
*P retention_save O
*I *702:X O *D sky130_fd_sc_hd__buf_2
*CAP
1 retention_save 0.000436603
2 *702:X 0.000436603
3 retention_save *702:A 3.9733e-05
4 retention_en retention_save 0
5 retention_restore retention_save 0
6 *17:160 retention_save 0
*RES
1 *702:X retention_save 21.9098 
*END

*D_NET *22 0.00112962
*CONN
*P seq_busy O
*I *703:X O *D sky130_fd_sc_hd__clkbuf_2
*CAP
1 seq_busy 0.000432817
2 *703:X 0.000432817
3 seq_busy *157:14 0.000144773
4 error seq_busy 0.000119213
5 pwr_state[1] seq_busy 0
*RES
1 *703:X seq_busy 21.5859 
*END

*D_NET *23 0.00096053
*CONN
*P wake_up I
*I *694:A I *D sky130_fd_sc_hd__clkbuf_1
*CAP
1 wake_up 0.000465809
2 *694:A 0.000465809
3 *694:A *676:D 2.89114e-05
*RES
1 wake_up *694:A 22.6571 
*END

*D_NET *24 0.00153566
*CONN
*I *665:D I *D sky130_fd_sc_hd__dfrtp_1
*I *605:X O *D sky130_fd_sc_hd__o21a_1
*CAP
1 *665:D 0.000604954
2 *605:X 0.000604954
3 *665:D *88:12 1.58213e-06
4 *665:D *142:65 0
5 *665:D *142:76 0
6 *665:D *142:87 0
7 clk_gate_en *665:D 0.000324167
*RES
1 *605:X *665:D 36.725 
*END

*D_NET *25 0.00086558
*CONN
*I *656:D I *D sky130_fd_sc_hd__dfstp_1
*I *607:Y O *D sky130_fd_sc_hd__inv_2
*CAP
1 *656:D 0.000231611
2 *607:Y 0.000231611
3 *656:D *668:D 0
4 *656:D *670:CLK 0
5 *656:SET_B *656:D 7.81913e-05
6 *17:154 *656:D 0.000324167
*RES
1 *607:Y *656:D 33.4393 
*END

*D_NET *26 0.00456533
*CONN
*I *601:A I *D sky130_fd_sc_hd__nand3_1
*I *666:D I *D sky130_fd_sc_hd__dfrtp_1
*I *600:Y O *D sky130_fd_sc_hd__nor2_1
*CAP
1 *601:A 0
2 *666:D 0.00106949
3 *600:Y 0.00063244
4 *26:10 0.00170193
5 *666:D *566:B 5.59013e-05
6 *666:D *666:CLK 5.65955e-05
7 *666:D *678:D 0.000259045
8 *666:D *682:CLK 0.000125731
9 *666:D *682:D 3.80808e-05
10 *666:D *109:12 0
11 *666:D *142:33 1.55234e-05
12 *666:D *142:37 2.70242e-05
13 *666:D *142:120 2.36643e-05
14 *26:10 *565:B 0
15 *26:10 *566:A 4.26856e-05
16 *26:10 *566:B 0.000164554
17 *26:10 *571:A 0.000117381
18 *26:10 *602:C1 0.000126307
19 *26:10 *90:30 1.30833e-05
20 *26:10 *90:38 0
21 *26:10 *105:14 0
22 *26:10 *109:12 0
23 *666:RESET_B *666:D 3.08664e-05
24 *678:RESET_B *666:D 1.52723e-05
25 *17:237 *666:D 4.97621e-05
*RES
1 *600:Y *26:10 24.9071 
2 *26:10 *666:D 30.9429 
3 *26:10 *601:A 13.8 
*END

*D_NET *27 0.00279395
*CONN
*I *668:D I *D sky130_fd_sc_hd__dfrtp_1
*I *615:X O *D sky130_fd_sc_hd__o211a_1
*CAP
1 *668:D 0.00116603
2 *615:X 0.00116603
3 *668:D *614:A1 0
4 *668:D *669:D 8.98897e-05
5 *668:D *670:CLK 0.00026703
6 *668:D *670:D 0.000104974
7 *668:D *46:10 0
8 *656:D *668:D 0
9 *17:154 *668:D 0
10 *17:156 *668:D 0
*RES
1 *615:X *668:D 47.8679 
*END

*D_NET *28 0.00057662
*CONN
*I *657:D I *D sky130_fd_sc_hd__dfrtp_1
*I *627:Y O *D sky130_fd_sc_hd__nor2_1
*CAP
1 *657:D 0.000281643
2 *627:Y 0.000281643
3 *657:D *627:B 1.33343e-05
4 *657:D *705:A 0
5 *657:RESET_B *657:D 0
*RES
1 *627:Y *657:D 31.6179 
*END

*D_NET *29 0.000320291
*CONN
*I *658:D I *D sky130_fd_sc_hd__dfrtp_1
*I *631:Y O *D sky130_fd_sc_hd__nor2_1
*CAP
1 *658:D 0.000125786
2 *631:Y 0.000125786
3 *658:D *631:B 7.25873e-06
4 *658:D *703:A 5.71821e-05
5 *658:D *159:38 4.27842e-06
*RES
1 *631:Y *658:D 29.7786 
*END

*D_NET *30 0.000914649
*CONN
*I *659:D I *D sky130_fd_sc_hd__dfrtp_1
*I *636:Y O *D sky130_fd_sc_hd__nor2_1
*CAP
1 *659:D 0.000280663
2 *636:Y 0.000280663
3 *659:D *136:42 7.83659e-05
4 *659:D *143:25 0.000196592
5 *659:D *173:43 7.83659e-05
*RES
1 *636:Y *659:D 32.1045 
*END

*D_NET *31 0.00213834
*CONN
*I *660:D I *D sky130_fd_sc_hd__dfrtp_1
*I *640:Y O *D sky130_fd_sc_hd__nor2_1
*CAP
1 *660:D 0.000668474
2 *640:Y 0.000668474
3 *660:D *655:A 0.000272338
4 *660:D *59:106 5.37055e-05
5 *660:D *86:10 0
6 *660:D *143:80 1.02504e-05
7 *660:D *143:95 0.000283983
8 *660:D *148:18 0.000181114
*RES
1 *640:Y *660:D 38.475 
*END

*D_NET *32 0.000507198
*CONN
*I *661:D I *D sky130_fd_sc_hd__dfrtp_1
*I *644:Y O *D sky130_fd_sc_hd__nor2_1
*CAP
1 *661:D 8.41225e-05
2 *644:Y 8.41225e-05
3 *661:D *644:B 9.41642e-05
4 *661:D *143:116 7.27949e-05
5 *661:D *143:118 7.32272e-05
6 *658:RESET_B *661:D 9.87672e-05
*RES
1 *644:Y *661:D 21.1893 
*END

*D_NET *33 0.000470127
*CONN
*I *662:D I *D sky130_fd_sc_hd__dfrtp_1
*I *649:Y O *D sky130_fd_sc_hd__nor2_1
*CAP
1 *662:D 0.000147307
2 *649:Y 0.000147307
3 *662:D *649:B 0.000175512
*RES
1 *649:Y *662:D 30.3857 
*END

*D_NET *34 0.000340268
*CONN
*I *663:D I *D sky130_fd_sc_hd__dfrtp_1
*I *653:Y O *D sky130_fd_sc_hd__nor2_1
*CAP
1 *663:D 0.000112129
2 *653:Y 0.000112129
3 *663:D *651:B 6.05161e-06
4 *663:D *179:10 0.00010996
*RES
1 *653:Y *663:D 20.7786 
*END

*D_NET *35 0.000855804
*CONN
*I *664:D I *D sky130_fd_sc_hd__dfrtp_1
*I *655:Y O *D sky130_fd_sc_hd__nor2_1
*CAP
1 *664:D 0.000302168
2 *655:Y 0.000302168
3 *664:D *538:A 2.85234e-05
4 *664:D *538:B 5.59275e-05
5 *664:D *85:12 2.93776e-05
6 *664:D *143:101 0.000137639
*RES
1 *655:Y *664:D 24.2071 
*END

*D_NET *36 0.00151227
*CONN
*I *594:A I *D sky130_fd_sc_hd__nor2_1
*I *593:Y O *D sky130_fd_sc_hd__nand2_1
*CAP
1 *594:A 0.000456177
2 *593:Y 0.000456177
3 *594:A *544:B 5.52238e-05
4 *594:A *582:A 4.70078e-05
5 *594:A *582:B 6.53725e-05
6 *594:A *582:C 6.51414e-05
7 *594:A *583:A 2.6725e-05
8 *594:A *583:B 3.64656e-05
9 *594:A *588:B 9.90431e-05
10 *594:A *595:A 4.22908e-05
11 *594:A *38:10 1.74352e-05
12 *594:A *92:14 1.94879e-05
13 *594:A *127:10 0.000125724
14 *594:A *129:12 0
*RES
1 *593:Y *594:A 35.5464 
*END

*D_NET *37 0.000217788
*CONN
*I *595:A I *D sky130_fd_sc_hd__nor2_1
*I *594:Y O *D sky130_fd_sc_hd__nor2_1
*CAP
1 *595:A 5.1419e-05
2 *594:Y 5.1419e-05
3 *595:A *588:B 1.74352e-05
4 *595:A *38:10 5.52238e-05
5 *594:A *595:A 4.22908e-05
*RES
1 *594:Y *595:A 19.975 
*END

*D_NET *38 0.00126303
*CONN
*I *621:A I *D sky130_fd_sc_hd__nand3_1
*I *604:A I *D sky130_fd_sc_hd__nand2_1
*I *595:Y O *D sky130_fd_sc_hd__nor2_1
*CAP
1 *621:A 0
2 *604:A 0.000172595
3 *595:Y 0.000200747
4 *38:10 0.000373342
5 *604:A *591:A 4.27842e-06
6 *604:A *675:D 2.85234e-05
7 *604:A *145:6 2.11336e-05
8 *38:10 *589:B1 0.000168226
9 *38:10 *591:A 9.50822e-05
10 *38:10 *626:A 0.000126439
11 *594:A *38:10 1.74352e-05
12 *595:A *38:10 5.52238e-05
*RES
1 *595:Y *38:10 19.1214 
2 *38:10 *604:A 16.5857 
3 *38:10 *621:A 13.8 
*END

*D_NET *39 0.00177762
*CONN
*I *603:A2 I *D sky130_fd_sc_hd__a21oi_1
*I *611:A I *D sky130_fd_sc_hd__or3b_1
*I *596:Y O *D sky130_fd_sc_hd__inv_2
*CAP
1 *603:A2 7.52346e-05
2 *611:A 0.000605889
3 *596:Y 0
4 *39:4 0.000681124
5 *603:A2 *603:B1 1.3701e-05
6 *603:A2 *610:B 1.77294e-05
7 *603:A2 *115:8 3.93247e-05
8 *611:A *570:A 3.08664e-05
9 *611:A *610:B 0.000107302
10 *611:A *48:8 9.81603e-05
11 *611:A *115:8 0.000108289
*RES
1 *596:Y *39:4 9.3 
2 *39:4 *611:A 19.7107 
3 *39:4 *603:A2 11.1036 
*END

*D_NET *40 0.00358583
*CONN
*I *602:A2 I *D sky130_fd_sc_hd__o211ai_2
*I *606:B I *D sky130_fd_sc_hd__nor2_1
*I *597:Y O *D sky130_fd_sc_hd__nand2_1
*CAP
1 *602:A2 0.000448006
2 *606:B 0.000715016
3 *597:Y 0
4 *40:4 0.00116302
5 *602:A2 *44:10 5.49995e-05
6 *602:A2 *90:30 0.000167678
7 *602:A2 *144:93 7.34096e-05
8 *606:B *574:A 1.47872e-05
9 *606:B *606:A 5.38444e-06
10 *606:B *608:A2 0.000191983
11 *606:B *608:B1 5.49489e-05
12 *606:B *46:10 2.07878e-05
13 *606:B *105:14 9.15842e-06
14 *606:B *105:36 0.000198252
15 *606:B *136:42 9.58181e-05
16 *606:B *144:29 0.000224348
17 *606:B *144:50 0.000148233
*RES
1 *597:Y *40:4 9.3 
2 *40:4 *606:B 39.5679 
3 *40:4 *602:A2 15.4964 
*END

*D_NET *41 0.000575342
*CONN
*I *599:A I *D sky130_fd_sc_hd__nand3_1
*I *598:Y O *D sky130_fd_sc_hd__nand2_1
*CAP
1 *599:A 0.000156973
2 *598:Y 0.000156973
3 *599:A *598:A 8.07313e-05
4 *599:A *103:17 0.000125243
5 *599:A *146:78 5.54204e-05
*RES
1 *598:Y *599:A 30.6 
*END

*D_NET *42 0.00165127
*CONN
*I *602:B1 I *D sky130_fd_sc_hd__o211ai_2
*I *599:Y O *D sky130_fd_sc_hd__nand3_1
*CAP
1 *602:B1 0.000515243
2 *599:Y 0.000515243
3 *602:B1 *563:B 3.2923e-05
4 *602:B1 *571:A 7.74135e-05
5 *602:B1 *590:A2 5.49995e-05
6 *602:B1 *590:A3 3.54498e-05
7 *602:B1 *90:20 0.000308007
8 *602:B1 *90:30 2.37944e-05
9 *602:B1 *103:17 4.27842e-06
10 *602:B1 *112:6 3.69047e-06
11 *602:B1 *144:93 8.02315e-05
*RES
1 *599:Y *602:B1 44.2607 
*END

*D_NET *43 0.000619737
*CONN
*I *602:C1 I *D sky130_fd_sc_hd__o211ai_2
*I *601:Y O *D sky130_fd_sc_hd__nand3_1
*CAP
1 *602:C1 0.00015004
2 *601:Y 0.00015004
3 *602:C1 *563:B 5.75973e-05
4 *602:C1 *565:B 3.9745e-05
5 *602:C1 *566:A 4.11173e-05
6 *602:C1 *568:A 4.48011e-05
7 *602:C1 *90:30 1.00887e-05
8 *26:10 *602:C1 0.000126307
*RES
1 *601:Y *602:C1 31.3679 
*END

*D_NET *44 0.00295781
*CONN
*I *603:B1 I *D sky130_fd_sc_hd__a21oi_1
*I *622:A I *D sky130_fd_sc_hd__inv_2
*I *602:Y O *D sky130_fd_sc_hd__o211ai_2
*CAP
1 *603:B1 0.000171456
2 *622:A 0.000110981
3 *602:Y 0.000274333
4 *44:10 0.00055677
5 *603:B1 *572:B 2.24656e-05
6 *603:B1 *610:B 0.000143557
7 *603:B1 *626:C 0.000146474
8 *603:B1 *685:A 0.000144237
9 *603:B1 *45:10 0.000269422
10 *603:B1 *115:16 0
11 *622:A *589:A2 2.51343e-06
12 *622:A *589:B1 0.000119969
13 *622:A *591:B 1.35553e-05
14 *622:A *146:14 0.000308913
15 *44:10 *571:A 6.84398e-05
16 *44:10 *572:B 3.04901e-05
17 *44:10 *685:A 0.00035502
18 *44:10 *144:93 2.85321e-05
19 *44:10 *146:16 0.000121987
20 *602:A2 *44:10 5.49995e-05
21 *603:A2 *603:B1 1.3701e-05
*RES
1 *602:Y *44:10 20.8357 
2 *44:10 *622:A 17.2286 
3 *44:10 *603:B1 19.675 
*END

*D_NET *45 0.00276897
*CONN
*I *621:C I *D sky130_fd_sc_hd__nand3_1
*I *604:B I *D sky130_fd_sc_hd__nand2_1
*I *603:Y O *D sky130_fd_sc_hd__a21oi_1
*CAP
1 *621:C 1.17492e-05
2 *604:B 0.000118482
3 *603:Y 0.000553182
4 *45:10 0.000683413
5 *604:B *587:B 9.96553e-05
6 *604:B *145:23 5.66971e-05
7 *621:C *591:A 5.50052e-05
8 *621:C *146:10 5.50052e-05
9 *45:10 *587:B 0.000187331
10 *45:10 *591:A 3.54808e-05
11 *45:10 *592:A 0.000101545
12 *45:10 *610:B 7.28899e-05
13 *45:10 *626:A 0.000113084
14 *45:10 *89:12 0.000356028
15 *603:B1 *45:10 0.000269422
*RES
1 *603:Y *45:10 25.5143 
2 *45:10 *604:B 16.2821 
3 *45:10 *621:C 14.3357 
*END

*D_NET *46 0.00278296
*CONN
*I *607:A I *D sky130_fd_sc_hd__inv_2
*I *610:A I *D sky130_fd_sc_hd__nor2_1
*I *606:Y O *D sky130_fd_sc_hd__nor2_1
*CAP
1 *607:A 0.000548544
2 *610:A 0
3 *606:Y 0.000294978
4 *46:10 0.000843523
5 *607:A *546:A 0.000186662
6 *607:A *613:A2 0
7 *607:A *613:B1 7.57869e-05
8 *607:A *708:A 0
9 *607:A *88:48 0.000179656
10 *607:A *100:10 9.92409e-05
11 *46:10 *614:B1 0.000195562
12 *46:10 *88:12 0.000114165
13 *46:10 *88:48 0.000224056
14 *606:B *46:10 2.07878e-05
15 *668:D *46:10 0
*RES
1 *606:Y *46:10 19.9429 
2 *46:10 *610:A 13.8 
3 *46:10 *607:A 24.9071 
*END

*D_NET *47 0.00205932
*CONN
*I *613:B1 I *D sky130_fd_sc_hd__a21o_1
*I *611:B I *D sky130_fd_sc_hd__or3b_1
*I *609:Y O *D sky130_fd_sc_hd__nor2_1
*CAP
1 *613:B1 0.0002304
2 *611:B 0
3 *609:Y 0.000306333
4 *47:10 0.000536733
5 *613:B1 *554:A 9.3111e-05
6 *613:B1 *554:B 0.000131824
7 *613:B1 *614:A2 0.000100726
8 *613:B1 *614:B1 8.25098e-05
9 *613:B1 *100:10 1.52978e-05
10 *613:B1 *100:25 0.000137983
11 *47:10 *570:B 0.000141734
12 *47:10 *614:A1 9.10431e-06
13 *47:10 *614:A2 3.92854e-05
14 *47:10 *614:B1 0.000158491
15 *607:A *613:B1 7.57869e-05
*RES
1 *609:Y *47:10 19.3714 
2 *47:10 *611:B 13.8 
3 *47:10 *613:B1 20.0857 
*END

*D_NET *48 0.000992369
*CONN
*I *611:C_N I *D sky130_fd_sc_hd__or3b_1
*I *614:B1 I *D sky130_fd_sc_hd__o21ai_1
*I *610:Y O *D sky130_fd_sc_hd__nor2_1
*CAP
1 *611:C_N 0
2 *614:B1 0.000152617
3 *610:Y 7.04908e-05
4 *48:8 0.000223108
5 *614:B1 *614:A1 0
6 *614:B1 *614:A2 7.43578e-06
7 *48:8 *610:B 3.99614e-06
8 *611:A *48:8 9.81603e-05
9 *613:B1 *614:B1 8.25098e-05
10 *46:10 *614:B1 0.000195562
11 *47:10 *614:B1 0.000158491
*RES
1 *610:Y *48:8 10.675 
2 *48:8 *614:B1 22.2107 
3 *48:8 *611:C_N 9.3 
*END

*D_NET *49 0.00479558
*CONN
*I *612:A I *D sky130_fd_sc_hd__clkbuf_1
*I *611:X O *D sky130_fd_sc_hd__or3b_1
*CAP
1 *612:A 0
2 *611:X 0.0012545
3 *49:22 0.0012545
4 *49:22 *546:B 3.54188e-05
5 *49:22 *613:A2 0.000189181
6 *49:22 *614:A1 5.74562e-05
7 *49:22 *615:A1 0
8 *49:22 *618:A 0.000257915
9 *49:22 *619:B 4.73656e-05
10 *49:22 *629:A 6.53137e-05
11 *49:22 *630:B 4.60115e-05
12 *49:22 *631:A 0.000126416
13 *49:22 *658:CLK 3.62988e-05
14 *49:22 *670:CLK 0.000723813
15 *49:22 *672:D 3.37643e-05
16 *49:22 *703:A 3.54498e-05
17 *49:22 *60:10 0
18 *49:22 *159:27 0.000140021
19 *49:22 *159:38 0.000258703
20 *49:22 *173:27 9.22948e-05
21 *17:80 *49:22 0.000141158
22 *17:154 *49:22 0
*RES
1 *611:X *49:22 48.1929 
2 *49:22 *612:A 9.3 
*END

*D_NET *50 0.000426788
*CONN
*I *617:B1 I *D sky130_fd_sc_hd__a211oi_1
*I *616:Y O *D sky130_fd_sc_hd__nand2_1
*CAP
1 *617:B1 0.000175263
2 *616:Y 0.000175263
3 *617:B1 *616:A 1.69108e-05
4 *617:B1 *616:B 1.04232e-05
5 *617:B1 *617:A1 1.15172e-05
6 *617:B1 *148:18 3.74103e-05
*RES
1 *616:Y *617:B1 21.35 
*END

*D_NET *51 0.000943064
*CONN
*I *620:A I *D sky130_fd_sc_hd__nand2_1
*I *618:X O *D sky130_fd_sc_hd__or2_1
*CAP
1 *620:A 0.000309784
2 *618:X 0.000309784
3 *620:A *618:A 3.67795e-05
4 *620:A *619:B 1.88048e-05
5 *620:A *627:B 2.26424e-05
6 *620:A *671:CLK 0
7 *620:A *60:10 3.51442e-05
8 *620:A *143:33 8.07313e-05
9 *620:A *173:27 3.0285e-05
10 *656:SET_B *620:A 9.91086e-05
*RES
1 *618:X *620:A 33.3321 
*END

*D_NET *52 0.000800452
*CONN
*I *628:B I *D sky130_fd_sc_hd__or2_1
*I *620:B I *D sky130_fd_sc_hd__nand2_1
*I *629:A I *D sky130_fd_sc_hd__nand2_1
*I *619:Y O *D sky130_fd_sc_hd__nand2_1
*CAP
1 *628:B 0
2 *620:B 4.98904e-05
3 *629:A 5.47408e-05
4 *619:Y 7.89423e-05
5 *52:21 0.00015489
6 *52:6 0.000238683
7 *620:B *627:A 5.42898e-05
8 *620:B *60:10 6.05161e-06
9 *620:B *173:35 2.42662e-05
10 *629:A *60:10 3.38513e-05
11 *52:6 *627:A 2.7247e-05
12 *3:23 *629:A 1.22852e-05
13 *49:22 *629:A 6.53137e-05
*RES
1 *619:Y *52:6 10.2464 
2 *52:6 *629:A 19.9429 
3 *52:6 *52:21 1.78571 
4 *52:21 *620:B 11.1839 
5 *52:21 *628:B 9.3 
*END

*D_NET *53 0.000684115
*CONN
*I *627:A I *D sky130_fd_sc_hd__nor2_1
*I *620:Y O *D sky130_fd_sc_hd__nand2_1
*CAP
1 *627:A 0.000140659
2 *620:Y 0.000140659
3 *627:A *619:A 5.52302e-05
4 *627:A *627:B 0.000166987
5 *627:A *173:35 9.90431e-05
6 *620:B *627:A 5.42898e-05
7 *52:6 *627:A 2.7247e-05
*RES
1 *620:Y *627:A 22.4393 
*END

*D_NET *54 0.001336
*CONN
*I *626:A I *D sky130_fd_sc_hd__nand3_4
*I *621:Y O *D sky130_fd_sc_hd__nand3_1
*CAP
1 *626:A 0.000229368
2 *621:Y 0.000229368
3 *626:A *589:B1 2.89114e-05
4 *626:A *591:A 0.000126439
5 *626:A *592:A 9.41642e-05
6 *626:A *89:12 0.00014285
7 *626:A *131:8 0.000245383
8 *38:10 *626:A 0.000126439
9 *45:10 *626:A 0.000113084
*RES
1 *621:Y *626:A 34.1536 
*END

*D_NET *55 0.000544974
*CONN
*I *626:B I *D sky130_fd_sc_hd__nand3_4
*I *622:Y O *D sky130_fd_sc_hd__inv_2
*CAP
1 *626:B 0.00012737
2 *622:Y 0.00012737
3 *626:B *591:B 0.00010096
4 *626:B *59:14 1.41029e-05
5 *626:B *89:12 0.000125724
6 *626:B *90:87 4.94455e-05
*RES
1 *622:Y *626:B 30.4929 
*END

*D_NET *56 0.00120602
*CONN
*I *625:A I *D sky130_fd_sc_hd__nand2_1
*I *623:Y O *D sky130_fd_sc_hd__nand2_1
*CAP
1 *625:A 0.000392805
2 *623:Y 0.000392805
3 *625:A *572:A 7.36381e-05
4 *625:A *608:B1 6.05161e-06
5 *625:A *609:A 0
6 *625:A *609:B 0.000271904
7 *625:A *625:B 0
8 *625:A *101:33 4.33899e-05
9 *625:A *105:36 3.83493e-06
10 *625:A *117:14 1.24368e-05
11 *625:A *144:50 9.15842e-06
*RES
1 *623:Y *625:A 34.1357 
*END

*D_NET *57 0.0005197
*CONN
*I *625:B I *D sky130_fd_sc_hd__nand2_1
*I *624:Y O *D sky130_fd_sc_hd__nand3_1
*CAP
1 *625:B 0.000144836
2 *624:Y 0.000144836
3 *625:B *624:C 9.99853e-05
4 *625:B *101:33 0.000130042
5 *625:A *625:B 0
*RES
1 *624:Y *625:B 30.1893 
*END

*D_NET *58 0.00114905
*CONN
*I *626:C I *D sky130_fd_sc_hd__nand3_4
*I *625:Y O *D sky130_fd_sc_hd__nand2_1
*CAP
1 *626:C 0.000254807
2 *625:Y 0.000254807
3 *626:C *572:A 9.71197e-05
4 *626:C *572:B 0.000126509
5 *626:C *589:A1 2.97489e-05
6 *626:C *589:A2 0.000230475
7 *626:C *685:A 9.11365e-06
8 *626:C *115:16 0
9 *603:B1 *626:C 0.000146474
*RES
1 *625:Y *626:C 34.0821 
*END

*D_NET *59 0.0141619
*CONN
*I *653:B I *D sky130_fd_sc_hd__nor2_1
*I *655:B I *D sky130_fd_sc_hd__nor2_1
*I *640:B I *D sky130_fd_sc_hd__nor2_1
*I *649:B I *D sky130_fd_sc_hd__nor2_1
*I *644:B I *D sky130_fd_sc_hd__nor2_1
*I *631:B I *D sky130_fd_sc_hd__nor2_1
*I *627:B I *D sky130_fd_sc_hd__nor2_1
*I *636:B I *D sky130_fd_sc_hd__nor2_1
*I *626:Y O *D sky130_fd_sc_hd__nand3_4
*CAP
1 *653:B 0.000206267
2 *655:B 0
3 *640:B 1.95116e-05
4 *649:B 0.000353898
5 *644:B 0.000309572
6 *631:B 0.000217275
7 *627:B 0.000489414
8 *636:B 2.74397e-05
9 *626:Y 0.000843053
10 *59:106 0.000519679
11 *59:93 0.000407717
12 *59:58 0.000763244
13 *59:39 0.00117684
14 *59:26 0.00116773
15 *59:18 0.00120704
16 *59:14 0.00108172
17 *627:B *629:B 2.31791e-05
18 *627:B *60:10 7.90803e-05
19 *627:B *94:12 0.00010326
20 *627:B *173:35 0.000225616
21 *631:B *642:A 0.000181032
22 *640:B *640:A 5.46383e-06
23 *644:B *644:A 7.6644e-05
24 *644:B *143:118 1.55885e-05
25 *649:B *642:A 7.80183e-05
26 *649:B *649:A 0.00017364
27 *649:B *71:21 0.000271184
28 *649:B *177:12 0
29 *653:B *538:A 0.000148837
30 *653:B *655:A 5.54817e-06
31 *59:14 *536:B 5.94737e-05
32 *59:14 *550:A 4.73731e-05
33 *59:14 *579:B 1.90936e-05
34 *59:14 *580:B 0.000265031
35 *59:14 *593:B 0
36 *59:14 *616:B 0
37 *59:14 *617:A1 0
38 *59:14 *642:C 0.000351326
39 *59:14 *685:A 7.8327e-05
40 *59:14 *686:A 0.00027084
41 *59:14 *84:12 7.32169e-05
42 *59:14 *87:16 8.16036e-05
43 *59:14 *89:12 1.02504e-05
44 *59:14 *90:87 0
45 *59:14 *90:108 0
46 *59:14 *98:20 0
47 *59:14 *124:10 0
48 *59:14 *124:16 0
49 *59:14 *131:25 0
50 *59:14 *143:16 4.90689e-05
51 *59:14 *176:16 3.50901e-05
52 *59:18 *639:B 9.84729e-05
53 *59:18 *640:A 9.21524e-05
54 *59:18 *148:18 1.12713e-05
55 *59:26 *578:A 3.51368e-05
56 *59:26 *634:B 0
57 *59:26 *636:A 5.49544e-05
58 *59:26 *638:A 0
59 *59:26 *82:10 0.00010504
60 *59:26 *98:20 0
61 *59:26 *175:34 5.49544e-05
62 *59:26 *175:41 0.000402086
63 *59:39 *535:A 3.08664e-05
64 *59:39 *60:10 4.35421e-05
65 *59:39 *82:10 7.49387e-06
66 *59:39 *173:35 8.67667e-05
67 *59:39 *173:43 4.0479e-05
68 *59:39 *174:14 2.84026e-05
69 *59:58 *629:B 0.00012291
70 *59:58 *630:A 0.000195126
71 *59:58 *671:CLK 9.1678e-05
72 *59:58 *60:10 0.000135531
73 *59:93 *640:A 2.24804e-05
74 *59:93 *148:18 2.97489e-05
75 *59:106 *655:A 7.48644e-05
76 *59:106 *148:18 5.6685e-05
77 *620:A *627:B 2.26424e-05
78 *626:B *59:14 1.41029e-05
79 *627:A *627:B 0.000166987
80 *657:D *627:B 1.33343e-05
81 *658:D *631:B 7.25873e-06
82 *658:RESET_B *644:B 6.31439e-05
83 *660:D *59:106 5.37055e-05
84 *661:D *644:B 9.41642e-05
85 *662:D *649:B 0.000175512
86 *672:RESET_B *644:B 0
87 *3:23 *644:B 0.000115967
88 *3:23 *59:58 9.62555e-05
89 *17:130 *59:14 0
*RES
1 *626:Y *59:14 39.1214 
2 *59:14 *59:18 7.5 
3 *59:18 *59:26 17.125 
4 *59:26 *636:B 9.72857 
5 *59:26 *59:39 10.3929 
6 *59:39 *627:B 22.1929 
7 *59:39 *59:58 6.80357 
8 *59:58 *631:B 18.05 
9 *59:58 *644:B 19.9607 
10 *59:18 *649:B 23.3357 
11 *59:14 *59:93 1.35714 
12 *59:93 *640:B 9.72857 
13 *59:93 *59:106 10.2679 
14 *59:106 *655:B 13.8 
15 *59:106 *653:B 18.1393 
*END

*D_NET *60 0.00355206
*CONN
*I *630:A I *D sky130_fd_sc_hd__nand2_1
*I *634:A I *D sky130_fd_sc_hd__nand2_1
*I *638:B I *D sky130_fd_sc_hd__or2_1
*I *633:B I *D sky130_fd_sc_hd__or2_1
*I *628:X O *D sky130_fd_sc_hd__or2_1
*CAP
1 *630:A 5.84176e-05
2 *634:A 0
3 *638:B 5.66514e-05
4 *633:B 0
5 *628:X 0.000184871
6 *60:22 0.000433732
7 *60:16 0.000733738
8 *60:10 0.000599947
9 *638:B *637:A 0.000143505
10 *60:10 *173:35 0.000179745
11 *60:16 *629:B 9.41642e-05
12 *60:16 *634:B 1.80261e-05
13 *60:22 *633:A 5.47001e-05
14 *60:22 *634:B 1.22075e-05
15 *60:22 *635:A 2.976e-05
16 *60:22 *635:B 0.00014077
17 *60:22 *637:A 5.3845e-05
18 *620:A *60:10 3.51442e-05
19 *620:B *60:10 6.05161e-06
20 *627:B *60:10 7.90803e-05
21 *629:A *60:10 3.38513e-05
22 *3:23 *630:A 0.000186697
23 *3:23 *60:10 4.29537e-05
24 *49:22 *60:10 0
25 *59:39 *60:10 4.35421e-05
26 *59:58 *630:A 0.000195126
27 *59:58 *60:10 0.000135531
*RES
1 *628:X *60:10 18.425 
2 *60:10 *60:16 10.3929 
3 *60:16 *60:22 5.39286 
4 *60:22 *633:B 9.3 
5 *60:22 *638:B 10.6571 
6 *60:16 *634:A 9.3 
7 *60:10 *630:A 16.3536 
*END

*D_NET *61 0.000321699
*CONN
*I *630:B I *D sky130_fd_sc_hd__nand2_1
*I *629:Y O *D sky130_fd_sc_hd__nand2_1
*CAP
1 *630:B 6.39517e-05
2 *629:Y 6.39517e-05
3 *3:23 *630:B 0.000147784
4 *49:22 *630:B 4.60115e-05
*RES
1 *629:Y *630:B 29.5464 
*END

*D_NET *62 0.000833809
*CONN
*I *631:A I *D sky130_fd_sc_hd__nor2_1
*I *630:Y O *D sky130_fd_sc_hd__nand2_1
*CAP
1 *631:A 0.000207222
2 *630:Y 0.000207222
3 *631:A *671:CLK 2.56723e-05
4 *631:A *159:38 0.000127939
5 *17:80 *631:A 0.000139338
6 *49:22 *631:A 0.000126416
*RES
1 *630:Y *631:A 31.4214 
*END

*D_NET *63 0.00105672
*CONN
*I *634:B I *D sky130_fd_sc_hd__nand2_1
*I *633:A I *D sky130_fd_sc_hd__or2_1
*I *632:Y O *D sky130_fd_sc_hd__inv_2
*CAP
1 *634:B 0.00021917
2 *633:A 1.24608e-05
3 *632:Y 9.44124e-05
4 *63:8 0.000326043
5 *633:A *637:A 5.49489e-05
6 *634:B *635:A 3.08664e-05
7 *634:B *635:B 5.81713e-05
8 *634:B *636:A 9.99853e-05
9 *634:B *637:A 7.57312e-05
10 *63:8 *636:A 0
11 *63:8 *638:A 0
12 *59:26 *634:B 0
13 *60:16 *634:B 1.80261e-05
14 *60:22 *633:A 5.47001e-05
15 *60:22 *634:B 1.22075e-05
*RES
1 *632:Y *63:8 15.1393 
2 *63:8 *633:A 14.3357 
3 *63:8 *634:B 18.5679 
*END

*D_NET *64 0.000912708
*CONN
*I *637:A I *D sky130_fd_sc_hd__nand2_1
*I *635:A I *D sky130_fd_sc_hd__nand2_1
*I *633:X O *D sky130_fd_sc_hd__or2_1
*CAP
1 *637:A 0.000223623
2 *635:A 1.16339e-05
3 *633:X 0
4 *64:4 0.000235257
5 *637:A *68:10 5.35386e-05
6 *633:A *637:A 5.49489e-05
7 *634:B *635:A 3.08664e-05
8 *634:B *637:A 7.57312e-05
9 *638:B *637:A 0.000143505
10 *60:22 *635:A 2.976e-05
11 *60:22 *637:A 5.3845e-05
*RES
1 *633:X *64:4 9.3 
2 *64:4 *635:A 9.83571 
3 *64:4 *637:A 14.7643 
*END

*D_NET *65 0.000327682
*CONN
*I *635:B I *D sky130_fd_sc_hd__nand2_1
*I *634:Y O *D sky130_fd_sc_hd__nand2_1
*CAP
1 *635:B 5.96917e-05
2 *634:Y 5.96917e-05
3 *635:B *636:A 9.35794e-06
4 *634:B *635:B 5.81713e-05
5 *60:22 *635:B 0.00014077
*RES
1 *634:Y *635:B 21.0643 
*END

*D_NET *66 0.001065
*CONN
*I *636:A I *D sky130_fd_sc_hd__nor2_1
*I *635:Y O *D sky130_fd_sc_hd__nand2_1
*CAP
1 *636:A 0.000310046
2 *635:Y 0.000310046
3 *636:A *82:10 2.84109e-05
4 *636:A *136:42 0.000252196
5 *634:B *636:A 9.99853e-05
6 *635:B *636:A 9.35794e-06
7 *59:26 *636:A 5.49544e-05
8 *63:8 *636:A 0
*RES
1 *635:Y *636:A 33.3143 
*END

*D_NET *67 0.000502074
*CONN
*I *639:A I *D sky130_fd_sc_hd__nand2_1
*I *637:Y O *D sky130_fd_sc_hd__nand2_1
*CAP
1 *639:A 0.000198753
2 *637:Y 0.000198753
3 *639:A *637:B 2.11336e-05
4 *639:A *642:C 7.17807e-05
5 *639:A *97:12 1.16543e-05
*RES
1 *637:Y *639:A 30.9036 
*END

*D_NET *68 0.00157056
*CONN
*I *641:B I *D sky130_fd_sc_hd__nand2b_1
*I *639:B I *D sky130_fd_sc_hd__nand2_1
*I *638:X O *D sky130_fd_sc_hd__or2_1
*CAP
1 *641:B 0.000265066
2 *639:B 0.000111589
3 *638:X 0.00021849
4 *68:10 0.000595146
5 *639:B *148:18 0.000167678
6 *641:B *642:A 4.51556e-05
7 *641:B *643:B 6.26774e-06
8 *641:B *177:12 9.15842e-06
9 *637:A *68:10 5.35386e-05
10 *59:18 *639:B 9.84729e-05
*RES
1 *638:X *68:10 17.1036 
2 *68:10 *639:B 16.8 
3 *68:10 *641:B 18.9116 
*END

*D_NET *69 0.000504324
*CONN
*I *640:A I *D sky130_fd_sc_hd__nor2_1
*I *639:Y O *D sky130_fd_sc_hd__nand2_1
*CAP
1 *640:A 8.07287e-05
2 *639:Y 8.07287e-05
3 *640:A *148:18 0.00022277
4 *640:B *640:A 5.46383e-06
5 *59:18 *640:A 9.21524e-05
6 *59:93 *640:A 2.24804e-05
*RES
1 *639:Y *640:A 21.2071 
*END

*D_NET *70 0.000210716
*CONN
*I *643:A I *D sky130_fd_sc_hd__nand2_1
*I *641:Y O *D sky130_fd_sc_hd__nand2b_1
*CAP
1 *643:A 8.96735e-05
2 *641:Y 8.96735e-05
3 *643:A *643:B 2.65181e-05
4 *643:A *644:A 4.85049e-06
*RES
1 *641:Y *643:A 20.3857 
*END

*D_NET *71 0.00187196
*CONN
*I *647:A I *D sky130_fd_sc_hd__nand2_1
*I *646:B I *D sky130_fd_sc_hd__nor2_1
*I *643:B I *D sky130_fd_sc_hd__nand2_1
*I *642:Y O *D sky130_fd_sc_hd__nand3_1
*CAP
1 *647:A 6.83304e-05
2 *646:B 0
3 *643:B 0.000270949
4 *642:Y 0
5 *71:21 0.000313812
6 *71:4 0.000516431
7 *643:B *177:21 9.84729e-05
8 *647:A *646:A 5.22666e-05
9 *647:A *74:14 7.62323e-05
10 *71:21 *537:B 9.58632e-05
11 *71:21 *649:A 9.25014e-06
12 *71:21 *74:14 2.29112e-05
13 *71:21 *177:21 4.34677e-05
14 *641:B *643:B 6.26774e-06
15 *643:A *643:B 2.65181e-05
16 *649:B *71:21 0.000271184
*RES
1 *642:Y *71:4 9.3 
2 *71:4 *643:B 13.0321 
3 *71:4 *71:21 13.8214 
4 *71:21 *646:B 9.3 
5 *71:21 *647:A 11.5143 
*END

*D_NET *72 0.00190817
*CONN
*I *644:A I *D sky130_fd_sc_hd__nor2_1
*I *643:Y O *D sky130_fd_sc_hd__nand2_1
*CAP
1 *644:A 0.000816228
2 *643:Y 0.000816228
3 *644:A *174:14 1.97361e-05
4 *643:A *644:A 4.85049e-06
5 *644:B *644:A 7.6644e-05
6 *3:23 *644:A 0.00012501
7 *17:74 *644:A 4.94761e-05
*RES
1 *643:Y *644:A 37.9929 
*END

*D_NET *73 0.000855676
*CONN
*I *647:B I *D sky130_fd_sc_hd__nand2_1
*I *646:A I *D sky130_fd_sc_hd__nor2_1
*I *645:Y O *D sky130_fd_sc_hd__inv_2
*CAP
1 *647:B 0
2 *646:A 0.000100004
3 *645:Y 0.000221479
4 *73:12 0.000321483
5 *646:A *648:B_N 1.04766e-05
6 *73:12 *648:B_N 1.84865e-05
7 *73:12 *84:12 7.5802e-05
8 *73:12 *85:12 6.05161e-06
9 *647:A *646:A 5.22666e-05
10 *660:RESET_B *73:12 4.96258e-05
*RES
1 *645:Y *73:12 22.8357 
2 *73:12 *646:A 11.5143 
3 *73:12 *647:B 9.3 
*END

*D_NET *74 0.00282797
*CONN
*I *651:A I *D sky130_fd_sc_hd__nand2_1
*I *650:B I *D sky130_fd_sc_hd__or2_1
*I *648:A I *D sky130_fd_sc_hd__or2b_1
*I *646:Y O *D sky130_fd_sc_hd__nor2_1
*CAP
1 *651:A 3.08765e-05
2 *650:B 0.000256419
3 *648:A 0
4 *646:Y 0.000221438
5 *74:25 0.000621711
6 *74:14 0.000555854
7 *650:B *653:A 0.000224583
8 *650:B *143:114 0
9 *74:14 *642:C 6.37923e-05
10 *74:25 *537:A 7.88091e-05
11 *74:25 *537:B 2.69219e-05
12 *74:25 *642:C 6.05161e-06
13 *74:25 *651:B 3.49456e-06
14 *74:25 *84:12 9.84673e-05
15 *647:A *74:14 7.62323e-05
16 *660:RESET_B *650:B 5.29451e-05
17 *17:37 *650:B 0.000487467
18 *71:21 *74:14 2.29112e-05
*RES
1 *646:Y *74:14 21.6393 
2 *74:14 *648:A 9.3 
3 *74:14 *74:25 6.21429 
4 *74:25 *650:B 24.8893 
5 *74:25 *651:A 9.83571 
*END

*D_NET *75 0.000510987
*CONN
*I *648:B_N I *D sky130_fd_sc_hd__or2b_1
*I *647:Y O *D sky130_fd_sc_hd__nand2_1
*CAP
1 *648:B_N 0.00015719
2 *647:Y 0.00015719
3 *648:B_N *642:C 0.000144732
4 *648:B_N *84:12 2.29112e-05
5 *646:A *648:B_N 1.04766e-05
6 *73:12 *648:B_N 1.84865e-05
*RES
1 *647:Y *648:B_N 30.4929 
*END

*D_NET *76 0.000568556
*CONN
*I *649:A I *D sky130_fd_sc_hd__nor2_1
*I *648:X O *D sky130_fd_sc_hd__or2b_1
*CAP
1 *649:A 0.000192833
2 *648:X 0.000192833
3 *649:B *649:A 0.00017364
4 *71:21 *649:A 9.25014e-06
*RES
1 *648:X *649:A 31.975 
*END

*D_NET *77 0.000126884
*CONN
*I *652:A I *D sky130_fd_sc_hd__nand2_1
*I *650:X O *D sky130_fd_sc_hd__or2_1
*CAP
1 *652:A 6.29488e-06
2 *650:X 6.29488e-06
3 *652:A *652:B 5.71472e-05
4 *17:37 *652:A 5.71472e-05
*RES
1 *650:X *652:A 19.1357 
*END

*D_NET *78 0.00296844
*CONN
*I *652:B I *D sky130_fd_sc_hd__nand2_1
*I *654:B I *D sky130_fd_sc_hd__xor2_1
*I *651:Y O *D sky130_fd_sc_hd__nand2_1
*CAP
1 *652:B 0.000286243
2 *654:B 0.00038038
3 *651:Y 0.000200335
4 *78:8 0.000866958
5 *652:B *143:114 0.000134788
6 *654:B *538:A 6.94441e-06
7 *654:B *655:A 9.84673e-05
8 *654:B *143:95 0.00011307
9 *654:B *143:101 0.000195126
10 *654:B *143:114 5.533e-05
11 *78:8 *651:B 9.84673e-05
12 *78:8 *179:10 0.000135028
13 *652:A *652:B 5.71472e-05
14 *17:37 *652:B 0.000340154
*RES
1 *651:Y *78:8 16.3893 
2 *78:8 *654:B 21.8714 
3 *78:8 *652:B 20.4071 
*END

*D_NET *79 0.00128207
*CONN
*I *653:A I *D sky130_fd_sc_hd__nor2_1
*I *652:Y O *D sky130_fd_sc_hd__nand2_1
*CAP
1 *653:A 0.00036978
2 *652:Y 0.00036978
3 *653:A *538:A 3.2923e-05
4 *653:A *143:101 1.00887e-05
5 *653:A *143:114 0.000112635
6 *650:B *653:A 0.000224583
7 *17:37 *653:A 0.000162282
*RES
1 *652:Y *653:A 33.475 
*END

*D_NET *80 0.000928924
*CONN
*I *655:A I *D sky130_fd_sc_hd__nor2_1
*I *654:X O *D sky130_fd_sc_hd__xor2_1
*CAP
1 *655:A 0.000236079
2 *654:X 0.000236079
3 *655:A *538:A 5.54817e-06
4 *653:B *655:A 5.54817e-06
5 *654:B *655:A 9.84673e-05
6 *660:D *655:A 0.000272338
7 *59:106 *655:A 7.48644e-05
*RES
1 *654:X *655:A 33.4571 
*END

*D_NET *81 0.00164459
*CONN
*I *536:A I *D sky130_fd_sc_hd__nand2_1
*I *534:Y O *D sky130_fd_sc_hd__nor2_1
*CAP
1 *536:A 0.00044236
2 *534:Y 0.00044236
3 *536:A *536:B 7.45235e-05
4 *536:A *580:B 0.000410867
5 *536:A *83:10 5.30637e-06
6 *536:A *98:20 0.000188065
7 *536:A *143:16 5.52238e-05
8 *17:130 *536:A 2.58821e-05
*RES
1 *534:Y *536:A 37.0821 
*END

*D_NET *82 0.00392741
*CONN
*I *579:A I *D sky130_fd_sc_hd__nor2_1
*I *536:B I *D sky130_fd_sc_hd__nand2_1
*I *535:Y O *D sky130_fd_sc_hd__nand2_1
*CAP
1 *579:A 8.27366e-05
2 *536:B 0.000219119
3 *535:Y 0.000782959
4 *82:10 0.00108482
5 *536:B *580:B 0.000224596
6 *536:B *124:10 0.000139907
7 *579:A *579:B 1.33343e-05
8 *579:A *176:8 2.89114e-05
9 *579:A *176:16 5.52238e-05
10 *82:10 *578:A 3.68691e-05
11 *82:10 *94:6 0.000142412
12 *82:10 *122:10 0.000232399
13 *82:10 *173:43 0.000185118
14 *82:10 *175:34 2.84109e-05
15 *82:10 *175:41 0.000113691
16 *82:10 *176:16 9.60771e-05
17 *536:A *536:B 7.45235e-05
18 *636:A *82:10 2.84109e-05
19 *17:130 *536:B 0.000185894
20 *59:14 *536:B 5.94737e-05
21 *59:26 *82:10 0.00010504
22 *59:39 *82:10 7.49387e-06
*RES
1 *535:Y *82:10 23.5321 
2 *82:10 *536:B 24.3893 
3 *82:10 *579:A 11.2821 
*END

*D_NET *83 0.000908604
*CONN
*I *540:A I *D sky130_fd_sc_hd__nor2_1
*I *576:A1 I *D sky130_fd_sc_hd__o21bai_1
*I *536:Y O *D sky130_fd_sc_hd__nand2_1
*CAP
1 *540:A 0
2 *576:A1 0.000142097
3 *536:Y 0.000221793
4 *83:10 0.000363889
5 *576:A1 *582:B 0
6 *576:A1 *585:B 0
7 *576:A1 *129:12 0.000175519
8 *83:10 *86:12 0
9 *536:A *83:10 5.30637e-06
*RES
1 *536:Y *83:10 16.8 
2 *83:10 *576:A1 16.6571 
3 *83:10 *540:A 13.8 
*END

*D_NET *84 0.00159477
*CONN
*I *539:A I *D sky130_fd_sc_hd__nand2_1
*I *551:A I *D sky130_fd_sc_hd__nand3_1
*I *537:Y O *D sky130_fd_sc_hd__nor2_1
*CAP
1 *539:A 0
2 *551:A 0.000102339
3 *537:Y 0.000360711
4 *84:12 0.00046305
5 *551:A *551:B 0.000107855
6 *551:A *97:12 0.000111091
7 *84:12 *550:A 1.00887e-05
8 *84:12 *85:12 0.000169236
9 *648:B_N *84:12 2.29112e-05
10 *59:14 *84:12 7.32169e-05
11 *73:12 *84:12 7.5802e-05
12 *74:25 *84:12 9.84673e-05
*RES
1 *537:Y *84:12 26.05 
2 *84:12 *551:A 11.925 
3 *84:12 *539:A 9.3 
*END

*D_NET *85 0.00201383
*CONN
*I *551:B I *D sky130_fd_sc_hd__nand3_1
*I *539:B I *D sky130_fd_sc_hd__nand2_1
*I *538:Y O *D sky130_fd_sc_hd__nor2_1
*CAP
1 *551:B 0.000187556
2 *539:B 0
3 *538:Y 0.000557437
4 *85:12 0.000744993
5 *551:B *86:10 2.11336e-05
6 *551:B *97:12 2.25786e-05
7 *85:12 *538:A 3.11088e-05
8 *85:12 *148:18 8.52458e-05
9 *551:A *551:B 0.000107855
10 *660:RESET_B *85:12 5.12583e-05
11 *664:D *85:12 2.93776e-05
12 *73:12 *85:12 6.05161e-06
13 *84:12 *85:12 0.000169236
*RES
1 *538:Y *85:12 27.3179 
2 *85:12 *539:B 9.3 
3 *85:12 *551:B 13.1571 
*END

*D_NET *86 0.00261657
*CONN
*I *580:A I *D sky130_fd_sc_hd__nor2_1
*I *540:B I *D sky130_fd_sc_hd__nor2_1
*I *576:A2 I *D sky130_fd_sc_hd__o21bai_1
*I *539:Y O *D sky130_fd_sc_hd__nand2_1
*CAP
1 *580:A 0
2 *540:B 7.62051e-05
3 *576:A2 0.000166482
4 *539:Y 0.000426249
5 *86:12 0.00041177
6 *86:10 0.000595332
7 *540:B *585:B 5.52302e-05
8 *540:B *616:B 5.33005e-05
9 *540:B *87:6 2.14757e-05
10 *540:B *87:16 4.58194e-05
11 *540:B *125:8 4.22602e-05
12 *540:B *129:12 5.71472e-05
13 *576:A2 *576:B1_N 1.04232e-05
14 *576:A2 *577:A 1.91004e-05
15 *576:A2 *582:B 0.000173804
16 *576:A2 *617:A2 2.89016e-05
17 *576:A2 *119:12 0.000122436
18 *576:A2 *148:18 5.9483e-05
19 *86:10 *148:18 7.48381e-05
20 *86:12 *582:B 3.17148e-05
21 *86:12 *148:18 5.90322e-05
22 *551:B *86:10 2.11336e-05
23 *660:D *86:10 0
24 *660:RESET_B *86:10 6.44347e-05
25 *83:10 *86:12 0
*RES
1 *539:Y *86:10 20.7643 
2 *86:10 *86:12 2.55357 
3 *86:12 *576:A2 18.3714 
4 *86:12 *540:B 15.9964 
5 *86:10 *580:A 13.8 
*END

*D_NET *87 0.00465433
*CONN
*I *585:B I *D sky130_fd_sc_hd__nor2_1
*I *615:C1 I *D sky130_fd_sc_hd__o211a_1
*I *546:A I *D sky130_fd_sc_hd__nand2_1
*I *540:Y O *D sky130_fd_sc_hd__nor2_1
*CAP
1 *585:B 5.8301e-05
2 *615:C1 0
3 *546:A 0.000335477
4 *540:Y 5.89633e-05
5 *87:16 0.00153413
6 *87:6 0.00131592
7 *546:A *615:A2 5.49544e-05
8 *546:A *615:B1 5.49544e-05
9 *546:A *100:10 7.61062e-05
10 *585:B *582:B 7.90803e-05
11 *585:B *125:8 5.52302e-05
12 *87:6 *129:12 5.71472e-05
13 *87:16 *615:A2 0.00022511
14 *87:16 *615:B1 0.00021025
15 *87:16 *616:B 0.000134441
16 *87:16 *124:10 0
17 *87:16 *143:16 1.34703e-05
18 *540:B *585:B 5.52302e-05
19 *540:B *87:6 2.14757e-05
20 *540:B *87:16 4.58194e-05
21 *576:A1 *585:B 0
22 *607:A *546:A 0.000186662
23 *59:14 *87:16 8.16036e-05
*RES
1 *540:Y *87:6 10.2464 
2 *87:6 *87:16 28.4464 
3 *87:16 *546:A 24.9071 
4 *87:16 *615:C1 9.3 
5 *87:6 *585:B 19.8714 
*END

*D_NET *88 0.00988741
*CONN
*I *597:A I *D sky130_fd_sc_hd__nand2_1
*I *605:B1 I *D sky130_fd_sc_hd__o21a_1
*I *569:B I *D sky130_fd_sc_hd__nor2_1
*I *557:A I *D sky130_fd_sc_hd__nor2_1
*I *590:B1 I *D sky130_fd_sc_hd__o311a_1
*I *542:B I *D sky130_fd_sc_hd__nor2_1
*I *541:Y O *D sky130_fd_sc_hd__inv_6
*CAP
1 *597:A 0.000442347
2 *605:B1 5.46053e-05
3 *569:B 0.000130953
4 *557:A 0
5 *590:B1 0.000343803
6 *542:B 1.43074e-05
7 *541:Y 0
8 *88:48 0.000443051
9 *88:18 0.00202937
10 *88:12 0.00253698
11 *88:6 0.00076714
12 *88:4 0.000601262
13 *542:B *542:A 5.00087e-06
14 *542:B *89:12 9.54798e-06
15 *542:B *90:87 3.43988e-06
16 *569:B *557:B 8.66767e-05
17 *569:B *569:A 2.79382e-05
18 *569:B *708:A 7.8195e-05
19 *569:B *114:8 4.90701e-06
20 *590:B1 *542:A 2.39152e-05
21 *590:B1 *559:B1 0.000294791
22 *590:B1 *590:C1 5.33005e-05
23 *590:B1 *90:10 0.000104896
24 *590:B1 *90:87 0.000153867
25 *590:B1 *101:33 0.000126272
26 *590:B1 *144:93 4.58502e-05
27 *597:A *605:A2 4.17433e-05
28 *597:A *90:38 0.00039745
29 *597:A *105:14 7.33405e-05
30 *597:A *144:15 5.49544e-05
31 *597:A *144:93 4.17433e-05
32 *88:6 *605:A2 0.000143375
33 *88:12 *570:B 0
34 *88:18 *146:33 0.000232936
35 *88:48 *557:B 0
36 *88:48 *569:A 0
37 *88:48 *570:B 0
38 *607:A *88:48 0.000179656
39 *665:D *88:12 1.58213e-06
40 *46:10 *88:12 0.000114165
41 *46:10 *88:48 0.000224056
*RES
1 *541:Y *88:4 9.3 
2 *88:4 *88:6 2.17857 
3 *88:6 *88:12 14.2232 
4 *88:12 *88:18 9.4614 
5 *88:18 *542:B 14.0768 
6 *88:18 *590:B1 22.7732 
7 *88:12 *88:48 10.9911 
8 *88:48 *557:A 9.3 
9 *88:48 *569:B 12.9964 
10 *88:6 *605:B1 10.3357 
11 *88:4 *597:A 25.425 
*END

*D_NET *89 0.00272428
*CONN
*I *587:A I *D sky130_fd_sc_hd__and2_1
*I *616:A I *D sky130_fd_sc_hd__nand2_1
*I *544:A I *D sky130_fd_sc_hd__nand2_1
*I *542:Y O *D sky130_fd_sc_hd__nor2_1
*CAP
1 *587:A 0
2 *616:A 0.000311402
3 *544:A 0
4 *542:Y 0.000172342
5 *89:16 0.000627382
6 *89:12 0.000488322
7 *616:A *545:A 2.11419e-05
8 *616:A *582:B 3.0305e-05
9 *616:A *616:B 7.82542e-06
10 *616:A *617:A1 0.000139907
11 *616:A *124:16 4.45881e-05
12 *89:12 *542:A 9.54798e-06
13 *89:12 *610:B 7.32272e-05
14 *89:12 *685:A 5.19269e-05
15 *89:12 *90:87 0
16 *89:12 *131:8 3.68898e-05
17 *89:16 *583:B 2.70591e-05
18 *89:16 *587:B 1.52978e-05
19 *89:16 *591:A 0
20 *89:16 *90:87 0
21 *89:16 *90:108 0
22 *89:16 *124:16 5.80706e-06
23 *89:16 *127:10 0
24 *542:B *89:12 9.54798e-06
25 *617:B1 *616:A 1.69108e-05
26 *626:A *89:12 0.00014285
27 *626:B *89:12 0.000125724
28 *45:10 *89:12 0.000356028
29 *59:14 *89:12 1.02504e-05
*RES
1 *542:Y *89:12 24.2643 
2 *89:12 *89:16 9.78571 
3 *89:16 *544:A 13.8 
4 *89:16 *616:A 18.7643 
5 *89:12 *587:A 9.3 
*END

*D_NET *90 0.0113749
*CONN
*I *617:A1 I *D sky130_fd_sc_hd__a211oi_1
*I *544:B I *D sky130_fd_sc_hd__nand2_1
*I *569:A I *D sky130_fd_sc_hd__nor2_1
*I *590:C1 I *D sky130_fd_sc_hd__o311a_1
*I *563:B I *D sky130_fd_sc_hd__nor2_1
*I *597:B I *D sky130_fd_sc_hd__nand2_1
*I *608:A2 I *D sky130_fd_sc_hd__a21oi_1
*I *605:A2 I *D sky130_fd_sc_hd__o21a_1
*I *543:X O *D sky130_fd_sc_hd__clkbuf_2
*CAP
1 *617:A1 0.000184995
2 *544:B 6.44436e-05
3 *569:A 0.000897942
4 *590:C1 1.69531e-05
5 *563:B 8.02515e-05
6 *597:B 0
7 *608:A2 0.000391756
8 *605:A2 3.48629e-05
9 *543:X 0.000187163
10 *90:108 0.000394691
11 *90:87 0.00144001
12 *90:38 0.000716669
13 *90:30 0.000451907
14 *90:20 0.000398253
15 *90:10 0.000243413
16 *90:8 0.000654291
17 *544:B *582:A 4.36962e-05
18 *563:B *565:B 5.5474e-05
19 *563:B *568:A 4.26759e-05
20 *563:B *571:A 3.06393e-05
21 *569:A *557:B 8.45364e-05
22 *569:A *570:A 7.6612e-06
23 *569:A *588:B 1.58163e-05
24 *569:A *114:8 9.35114e-06
25 *569:A *141:8 0.000310292
26 *590:C1 *144:93 5.33005e-05
27 *605:A2 *605:A1 0.000143375
28 *608:A2 *605:A1 0.000193868
29 *608:A2 *136:42 1.90936e-05
30 *608:A2 *144:50 6.43513e-05
31 *617:A1 *124:16 6.42338e-05
32 *617:A1 *148:18 2.89114e-05
33 *90:8 *142:8 3.11088e-05
34 *90:10 *559:B1 4.41329e-06
35 *90:10 *146:72 0.000220357
36 *90:20 *559:B1 2.50593e-05
37 *90:20 *144:93 0.000347173
38 *90:20 *146:72 4.08063e-05
39 *90:30 *144:93 0.000313215
40 *90:38 *541:A 0.00021768
41 *90:38 *605:A1 8.55561e-05
42 *90:38 *105:14 8.95605e-05
43 *90:87 *587:B 0
44 *90:87 *591:C 1.70057e-05
45 *90:87 *131:25 0.00012401
46 *90:87 *146:72 0.000282426
47 *90:108 *593:B 0.000174542
48 *90:108 *124:16 1.76039e-05
49 *90:108 *131:25 7.22594e-05
50 *542:B *90:87 3.43988e-06
51 *569:B *569:A 2.79382e-05
52 *590:B1 *590:C1 5.33005e-05
53 *590:B1 *90:10 0.000104896
54 *590:B1 *90:87 0.000153867
55 *594:A *544:B 5.52238e-05
56 *597:A *605:A2 4.17433e-05
57 *597:A *90:38 0.00039745
58 *602:A2 *90:30 0.000167678
59 *602:B1 *563:B 3.2923e-05
60 *602:B1 *90:20 0.000308007
61 *602:B1 *90:30 2.37944e-05
62 *602:C1 *563:B 5.75973e-05
63 *602:C1 *90:30 1.00887e-05
64 *606:B *608:A2 0.000191983
65 *616:A *617:A1 0.000139907
66 *617:B1 *617:A1 1.15172e-05
67 *626:B *90:87 4.94455e-05
68 *26:10 *90:30 1.30833e-05
69 *26:10 *90:38 0
70 *59:14 *617:A1 0
71 *59:14 *90:87 0
72 *59:14 *90:108 0
73 *88:6 *605:A2 0.000143375
74 *88:48 *569:A 0
75 *89:12 *90:87 0
76 *89:16 *90:87 0
77 *89:16 *90:108 0
*RES
1 *543:X *90:8 16.3893 
2 *90:8 *90:10 2.85714 
3 *90:10 *90:20 13.6786 
4 *90:20 *90:30 9.30357 
5 *90:30 *90:38 16.7143 
6 *90:38 *605:A2 11.0679 
7 *90:38 *608:A2 27.0143 
8 *90:30 *597:B 9.3 
9 *90:20 *563:B 16.05 
10 *90:10 *590:C1 14.3357 
11 *90:8 *90:87 8.92857 
12 *90:87 *569:A 37.3536 
13 *90:87 *90:108 3.46429 
14 *90:108 *544:B 15.175 
15 *90:108 *617:A1 17.7464 
*END

*D_NET *91 0.0010363
*CONN
*I *545:A I *D sky130_fd_sc_hd__inv_2
*I *544:Y O *D sky130_fd_sc_hd__nand2_1
*CAP
1 *545:A 0.000286425
2 *544:Y 0.000286425
3 *545:A *583:A 2.11419e-05
4 *545:A *92:14 0.000120909
5 *545:A *92:18 0.000258131
6 *545:A *124:16 2.09826e-05
7 *545:A *129:12 2.11419e-05
8 *616:A *545:A 2.11419e-05
*RES
1 *544:Y *545:A 35.6692 
*END

*D_NET *92 0.00591709
*CONN
*I *577:B I *D sky130_fd_sc_hd__nand2_1
*I *582:C I *D sky130_fd_sc_hd__nand3_1
*I *546:B I *D sky130_fd_sc_hd__nand2_1
*I *613:A2 I *D sky130_fd_sc_hd__a21o_1
*I *545:Y O *D sky130_fd_sc_hd__inv_2
*CAP
1 *577:B 0.000261948
2 *582:C 4.41736e-05
3 *546:B 2.47999e-05
4 *613:A2 5.92715e-05
5 *545:Y 0
6 *92:18 0.0018753
7 *92:14 0.00198948
8 *92:4 0.000416025
9 *577:B *129:12 0
10 *582:C *582:B 8.6229e-06
11 *582:C *583:B 8.22793e-06
12 *613:A2 *614:A1 3.34295e-05
13 *613:A2 *93:8 0.00011891
14 *92:14 *127:10 7.43578e-06
15 *92:14 *129:12 4.64488e-06
16 *92:18 *136:42 1.462e-05
17 *545:A *92:14 0.000120909
18 *545:A *92:18 0.000258131
19 *594:A *582:C 6.51414e-05
20 *594:A *92:14 1.94879e-05
21 *607:A *613:A2 0
22 *3:23 *92:18 0.000361933
23 *49:22 *546:B 3.54188e-05
24 *49:22 *613:A2 0.000189181
*RES
1 *545:Y *92:4 9.3 
2 *92:4 *92:14 9.73506 
3 *92:14 *92:18 7.3486 
4 *92:18 *613:A2 16.2018 
5 *92:18 *546:B 14.3804 
6 *92:14 *582:C 18.0939 
7 *92:4 *577:B 22.6214 
*END

*D_NET *93 0.00204535
*CONN
*I *554:A I *D sky130_fd_sc_hd__nor2_1
*I *614:A1 I *D sky130_fd_sc_hd__o21ai_1
*I *546:Y O *D sky130_fd_sc_hd__nand2_1
*CAP
1 *554:A 0.000235392
2 *614:A1 0.000233397
3 *546:Y 3.4256e-05
4 *93:8 0.000503046
5 *554:A *554:B 0.000153143
6 *554:A *669:D 1.74352e-05
7 *614:A1 *614:A2 0.000299845
8 *614:A1 *669:CLK 3.87535e-05
9 *614:A1 *670:CLK 2.00751e-05
10 *614:A1 *100:10 6.98302e-05
11 *93:8 *100:10 0.000128161
12 *613:A2 *614:A1 3.34295e-05
13 *613:A2 *93:8 0.00011891
14 *613:B1 *554:A 9.3111e-05
15 *614:B1 *614:A1 0
16 *668:D *614:A1 0
17 *47:10 *614:A1 9.10431e-06
18 *49:22 *614:A1 5.74562e-05
*RES
1 *546:Y *93:8 15.4429 
2 *93:8 *614:A1 20.1571 
3 *93:8 *554:A 18.4607 
*END

*D_NET *94 0.00360039
*CONN
*I *549:A I *D sky130_fd_sc_hd__nand2_1
*I *615:A1 I *D sky130_fd_sc_hd__o211a_1
*I *629:B I *D sky130_fd_sc_hd__nand2_1
*I *628:A I *D sky130_fd_sc_hd__or2_1
*I *547:Y O *D sky130_fd_sc_hd__inv_2
*CAP
1 *549:A 0.000199793
2 *615:A1 0.000233791
3 *629:B 0.000138349
4 *628:A 0
5 *547:Y 0.00025154
6 *94:34 0.000574211
7 *94:12 0.000246316
8 *94:6 0.000500134
9 *549:A *549:B 5.38444e-06
10 *549:A *618:A 6.05161e-06
11 *549:A *708:A 5.60777e-05
12 *549:A *159:10 8.97632e-06
13 *615:A1 *708:A 0
14 *615:A1 *143:33 5.83304e-05
15 *615:A1 *159:10 4.48583e-05
16 *615:A1 *159:27 2.49484e-05
17 *629:B *671:CLK 0.000147089
18 *94:6 *173:35 9.47269e-05
19 *94:6 *173:43 2.2816e-05
20 *94:12 *671:CLK 0.00010326
21 *94:12 *173:35 9.41642e-05
22 *94:34 *671:CLK 0.000126439
23 *94:34 *143:33 0.000137939
24 *94:34 *159:27 3.92757e-05
25 *94:34 *173:43 0
26 *627:B *629:B 2.31791e-05
27 *627:B *94:12 0.00010326
28 *49:22 *615:A1 0
29 *59:58 *629:B 0.00012291
30 *60:16 *629:B 9.41642e-05
31 *82:10 *94:6 0.000142412
*RES
1 *547:Y *94:6 12.7107 
2 *94:6 *94:12 6.78571 
3 *94:12 *628:A 13.8 
4 *94:12 *629:B 17.1036 
5 *94:6 *94:34 7.96429 
6 *94:34 *615:A1 17.8 
7 *94:34 *549:A 17.2464 
*END

*D_NET *95 0.00021307
*CONN
*I *549:B I *D sky130_fd_sc_hd__nand2_1
*I *548:Y O *D sky130_fd_sc_hd__inv_2
*CAP
1 *549:B 5.82394e-05
2 *548:Y 5.82394e-05
3 *549:B *553:A 2.59355e-05
4 *549:B *708:A 1.24368e-05
5 *549:B *96:8 5.28345e-05
6 *549:A *549:B 5.38444e-06
*RES
1 *548:Y *549:B 19.975 
*END

*D_NET *96 0.00108551
*CONN
*I *584:A2 I *D sky130_fd_sc_hd__a21oi_1
*I *552:B I *D sky130_fd_sc_hd__or3_1
*I *549:Y O *D sky130_fd_sc_hd__nand2_1
*CAP
1 *584:A2 0
2 *552:B 9.69516e-05
3 *549:Y 0.00034719
4 *96:8 0.000444141
5 *96:8 *552:C 6.56534e-05
6 *96:8 *553:A 6.41221e-05
7 *96:8 *708:A 1.46148e-05
8 *549:B *96:8 5.28345e-05
*RES
1 *549:Y *96:8 15.6036 
2 *96:8 *552:B 10.8714 
3 *96:8 *584:A2 9.3 
*END

*D_NET *97 0.000577262
*CONN
*I *551:C I *D sky130_fd_sc_hd__nand3_1
*I *637:B I *D sky130_fd_sc_hd__nand2_1
*I *550:Y O *D sky130_fd_sc_hd__inv_2
*CAP
1 *551:C 0
2 *637:B 1.92529e-05
3 *550:Y 0.000186149
4 *97:12 0.000205402
5 *551:A *97:12 0.000111091
6 *551:B *97:12 2.25786e-05
7 *639:A *637:B 2.11336e-05
8 *639:A *97:12 1.16543e-05
*RES
1 *550:Y *97:12 12.4607 
2 *97:12 *637:B 9.83571 
3 *97:12 *551:C 9.3 
*END

*D_NET *98 0.00210128
*CONN
*I *584:B1 I *D sky130_fd_sc_hd__a21oi_1
*I *552:C I *D sky130_fd_sc_hd__or3_1
*I *551:Y O *D sky130_fd_sc_hd__nand3_1
*CAP
1 *584:B1 0
2 *552:C 0.000189096
3 *551:Y 0.000505098
4 *98:20 0.000694195
5 *552:C *584:A1 1.11845e-05
6 *552:C *175:8 2.84019e-05
7 *98:20 *534:B 2.26973e-05
8 *98:20 *580:B 9.928e-05
9 *98:20 *642:C 3.08135e-05
10 *98:20 *686:A 0.000188586
11 *98:20 *122:10 0
12 *98:20 *143:16 7.82083e-05
13 *536:A *98:20 0.000188065
14 *59:14 *98:20 0
15 *59:26 *98:20 0
16 *96:8 *552:C 6.56534e-05
*RES
1 *551:Y *98:20 37.1571 
2 *98:20 *552:C 21.3536 
3 *98:20 *584:B1 9.3 
*END

*D_NET *99 0.00162869
*CONN
*I *553:A I *D sky130_fd_sc_hd__inv_2
*I *552:X O *D sky130_fd_sc_hd__or3_1
*CAP
1 *553:A 0.000469748
2 *552:X 0.000469748
3 *553:A *615:A2 0.000126439
4 *553:A *615:B1 0.000150264
5 *553:A *708:A 0.000309052
6 *553:A *136:42 1.33846e-05
7 *549:B *553:A 2.59355e-05
8 *96:8 *553:A 6.41221e-05
*RES
1 *552:X *553:A 36.4393 
*END

*D_NET *100 0.00299441
*CONN
*I *613:A1 I *D sky130_fd_sc_hd__a21o_1
*I *554:B I *D sky130_fd_sc_hd__nor2_1
*I *614:A2 I *D sky130_fd_sc_hd__o21ai_1
*I *553:Y O *D sky130_fd_sc_hd__inv_2
*CAP
1 *613:A1 0
2 *554:B 0.000184086
3 *614:A2 0.000189069
4 *553:Y 0.000384605
5 *100:25 0.00027964
6 *100:10 0.000669228
7 *554:B *669:D 2.89016e-05
8 *546:A *100:10 7.61062e-05
9 *554:A *554:B 0.000153143
10 *607:A *100:10 9.92409e-05
11 *613:B1 *554:B 0.000131824
12 *613:B1 *614:A2 0.000100726
13 *613:B1 *100:10 1.52978e-05
14 *613:B1 *100:25 0.000137983
15 *614:A1 *614:A2 0.000299845
16 *614:A1 *100:10 6.98302e-05
17 *614:B1 *614:A2 7.43578e-06
18 *47:10 *614:A2 3.92854e-05
19 *93:8 *100:10 0.000128161
*RES
1 *553:Y *100:10 20.175 
2 *100:10 *614:A2 18.2107 
3 *100:10 *100:25 5.85714 
4 *100:25 *554:B 12.7464 
5 *100:25 *613:A1 9.3 
*END

*D_NET *101 0.00437908
*CONN
*I *556:A I *D sky130_fd_sc_hd__inv_2
*I *609:B I *D sky130_fd_sc_hd__nor2_1
*I *559:B1 I *D sky130_fd_sc_hd__o21a_1
*I *555:Y O *D sky130_fd_sc_hd__nand2_1
*CAP
1 *556:A 0
2 *609:B 9.07418e-05
3 *559:B1 0.000254906
4 *555:Y 0
5 *101:33 0.00086437
6 *101:6 0.00102853
7 *559:B1 *602:A1 0.000213498
8 *559:B1 *112:18 8.6229e-06
9 *559:B1 *146:72 3.89685e-05
10 *559:B1 *146:78 1.19509e-05
11 *609:B *557:B 2.70242e-05
12 *609:B *570:B 0.000273545
13 *609:B *572:A 5.65955e-05
14 *101:33 *542:A 2.50593e-05
15 *101:33 *571:A 0.000124128
16 *101:33 *571:B 9.92439e-06
17 *101:33 *572:A 5.49489e-05
18 *101:33 *600:B 0.000224582
19 *101:33 *624:C 1.32293e-05
20 *101:33 *115:16 3.14996e-05
21 *101:33 *116:8 3.24049e-05
22 *101:33 *117:14 9.86782e-05
23 *590:B1 *559:B1 0.000294791
24 *590:B1 *101:33 0.000126272
25 *625:A *609:B 0.000271904
26 *625:A *101:33 4.33899e-05
27 *625:B *101:33 0.000130042
28 *90:10 *559:B1 4.41329e-06
29 *90:20 *559:B1 2.50593e-05
*RES
1 *555:Y *101:6 13.8 
2 *101:6 *559:B1 20.6036 
3 *101:6 *101:33 26.4107 
4 *101:33 *609:B 13.1214 
5 *101:33 *556:A 9.3 
*END

*D_NET *102 0.00201979
*CONN
*I *572:A I *D sky130_fd_sc_hd__nand2_1
*I *557:B I *D sky130_fd_sc_hd__nor2_1
*I *556:Y O *D sky130_fd_sc_hd__inv_2
*CAP
1 *572:A 0.000163812
2 *557:B 0.000503493
3 *556:Y 0
4 *102:4 0.000667305
5 *557:B *570:A 6.94534e-05
6 *557:B *570:B 0.00012306
7 *572:A *117:14 1.21258e-05
8 *569:A *557:B 8.45364e-05
9 *569:B *557:B 8.66767e-05
10 *609:B *557:B 2.70242e-05
11 *609:B *572:A 5.65955e-05
12 *625:A *572:A 7.36381e-05
13 *626:C *572:A 9.71197e-05
14 *88:48 *557:B 0
15 *101:33 *572:A 5.49489e-05
*RES
1 *556:Y *102:4 9.3 
2 *102:4 *557:B 26.8536 
3 *102:4 *572:A 13.05 
*END

*D_NET *103 0.00142156
*CONN
*I *590:A3 I *D sky130_fd_sc_hd__o311a_1
*I *559:A2 I *D sky130_fd_sc_hd__o21a_1
*I *598:A I *D sky130_fd_sc_hd__nand2_1
*I *558:Y O *D sky130_fd_sc_hd__inv_2
*CAP
1 *590:A3 5.53646e-05
2 *559:A2 9.92793e-05
3 *598:A 7.06335e-05
4 *558:Y 0
5 *103:17 0.000300193
6 *103:4 0.000216182
7 *559:A2 *599:B 0.000139907
8 *590:A3 *146:72 4.37079e-05
9 *598:A *601:C 0.000199009
10 *103:17 *590:A2 0
11 *103:17 *112:18 1.01912e-05
12 *103:17 *146:72 2.81349e-05
13 *103:17 *146:78 1.32511e-05
14 *599:A *598:A 8.07313e-05
15 *599:A *103:17 0.000125243
16 *602:B1 *590:A3 3.54498e-05
17 *602:B1 *103:17 4.27842e-06
*RES
1 *558:Y *103:4 9.3 
2 *103:4 *598:A 11.8 
3 *103:4 *103:17 7.05357 
4 *103:17 *559:A2 15.1571 
5 *103:17 *590:A3 15.1393 
*END

*D_NET *104 0.00110774
*CONN
*I *566:A I *D sky130_fd_sc_hd__nand2_1
*I *559:X O *D sky130_fd_sc_hd__o21a_1
*CAP
1 *566:A 0.000372902
2 *559:X 0.000372902
3 *566:A *541:A 2.94881e-05
4 *566:A *563:A 3.70678e-06
5 *566:A *568:A 0.000214734
6 *566:A *571:A 9.59532e-06
7 *566:A *602:A1 2.06112e-05
8 *602:C1 *566:A 4.11173e-05
9 *26:10 *566:A 4.26856e-05
*RES
1 *559:X *566:A 37.5474 
*END

*D_NET *105 0.00337386
*CONN
*I *623:B I *D sky130_fd_sc_hd__nand2_1
*I *608:B1 I *D sky130_fd_sc_hd__a21oi_1
*I *601:B I *D sky130_fd_sc_hd__nand3_1
*I *562:A I *D sky130_fd_sc_hd__nand2_1
*I *560:Y O *D sky130_fd_sc_hd__inv_2
*CAP
1 *623:B 0
2 *608:B1 3.72824e-05
3 *601:B 9.96374e-05
4 *562:A 2.23854e-05
5 *560:Y 7.52179e-05
6 *105:36 0.000517373
7 *105:14 0.000468615
8 *105:8 0.000901901
9 *562:A *565:A 0
10 *562:A *601:C 0
11 *601:B *565:A 8.86413e-05
12 *608:B1 *144:50 3.08664e-05
13 *105:8 *144:15 5.49489e-05
14 *105:8 *144:93 5.33005e-05
15 *105:14 *562:B 0.00010096
16 *105:14 *565:A 3.18676e-05
17 *105:14 *566:B 0
18 *105:14 *144:23 3.12359e-05
19 *105:36 *623:A 2.94517e-05
20 *105:36 *116:8 2.12005e-05
21 *105:36 *118:6 0.000269385
22 *105:36 *144:23 0.000104443
23 *597:A *105:14 7.33405e-05
24 *606:B *608:B1 5.49489e-05
25 *606:B *105:14 9.15842e-06
26 *606:B *105:36 0.000198252
27 *625:A *608:B1 6.05161e-06
28 *625:A *105:36 3.83493e-06
29 *673:RESET_B *105:14 0
30 *26:10 *105:14 0
31 *90:38 *105:14 8.95605e-05
*RES
1 *560:Y *105:8 14.7464 
2 *105:8 *105:14 11.5536 
3 *105:14 *562:A 9.72857 
4 *105:14 *601:B 11.0679 
5 *105:8 *105:36 12.8214 
6 *105:36 *608:B1 10.2464 
7 *105:36 *623:B 9.3 
*END

*D_NET *106 0.000448103
*CONN
*I *562:B I *D sky130_fd_sc_hd__nand2_1
*I *561:Y O *D sky130_fd_sc_hd__inv_2
*CAP
1 *562:B 0.000173572
2 *561:Y 0.000173572
3 *673:RESET_B *562:B 0
4 *105:14 *562:B 0.00010096
*RES
1 *561:Y *562:B 30.9036 
*END

*D_NET *107 0.000641908
*CONN
*I *565:A I *D sky130_fd_sc_hd__nand3_1
*I *562:Y O *D sky130_fd_sc_hd__nand2_1
*CAP
1 *565:A 0.000135562
2 *562:Y 0.000135562
3 *565:A *566:B 0.000227532
4 *565:A *601:C 2.27416e-05
5 *562:A *565:A 0
6 *601:B *565:A 8.86413e-05
7 *105:14 *565:A 3.18676e-05
*RES
1 *562:Y *565:A 22.4393 
*END

*D_NET *108 0.00126942
*CONN
*I *599:B I *D sky130_fd_sc_hd__nand3_1
*I *565:B I *D sky130_fd_sc_hd__nand3_1
*I *563:Y O *D sky130_fd_sc_hd__nor2_1
*CAP
1 *599:B 0.000253916
2 *565:B 0.0001317
3 *563:Y 3.50004e-05
4 *108:6 0.000420616
5 *565:B *568:A 4.32957e-05
6 *565:B *112:18 0
7 *565:B *146:78 0
8 *599:B *568:A 1.98839e-05
9 *599:B *568:B 5.33334e-05
10 *599:B *146:78 5.89831e-05
11 *108:6 *568:A 6.05161e-06
12 *108:6 *146:78 1.15172e-05
13 *559:A2 *599:B 0.000139907
14 *563:B *565:B 5.5474e-05
15 *602:C1 *565:B 3.9745e-05
16 *26:10 *565:B 0
*RES
1 *563:Y *108:6 9.83571 
2 *108:6 *565:B 20.8536 
3 *108:6 *599:B 14.2643 
*END

*D_NET *109 0.00130995
*CONN
*I *598:B I *D sky130_fd_sc_hd__nand2_1
*I *565:C I *D sky130_fd_sc_hd__nand3_1
*I *564:Y O *D sky130_fd_sc_hd__inv_2
*CAP
1 *598:B 0
2 *565:C 4.10855e-05
3 *564:Y 0.000489139
4 *109:12 0.000530225
5 *565:C *601:C 5.33334e-05
6 *109:12 *171:12 0.000186669
7 *666:D *109:12 0
8 *682:RESET_B *109:12 9.50011e-06
9 *26:10 *109:12 0
*RES
1 *564:Y *109:12 24.8893 
2 *109:12 *565:C 10.2464 
3 *109:12 *598:B 9.3 
*END

*D_NET *110 0.000972206
*CONN
*I *566:B I *D sky130_fd_sc_hd__nand2_1
*I *565:Y O *D sky130_fd_sc_hd__nand3_1
*CAP
1 *566:B 0.000262109
2 *565:Y 0.000262109
3 *565:A *566:B 0.000227532
4 *666:D *566:B 5.59013e-05
5 *26:10 *566:B 0.000164554
6 *105:14 *566:B 0
*RES
1 *565:Y *566:B 32.6357 
*END

*D_NET *111 0.000968711
*CONN
*I *568:A I *D sky130_fd_sc_hd__nand2_1
*I *566:Y O *D sky130_fd_sc_hd__nand2_1
*CAP
1 *568:A 0.000269155
2 *566:Y 0.000269155
3 *568:A *541:A 2.87555e-06
4 *568:A *563:A 1.08499e-05
5 *568:A *602:A1 9.83539e-06
6 *568:A *112:18 2.8266e-06
7 *568:A *146:78 3.25732e-05
8 *563:B *568:A 4.26759e-05
9 *565:B *568:A 4.32957e-05
10 *566:A *568:A 0.000214734
11 *599:B *568:A 1.98839e-05
12 *602:C1 *568:A 4.48011e-05
13 *108:6 *568:A 6.05161e-06
*RES
1 *566:Y *568:A 37.8707 
*END

*D_NET *112 0.00160511
*CONN
*I *599:C I *D sky130_fd_sc_hd__nand3_1
*I *602:A1 I *D sky130_fd_sc_hd__o211ai_2
*I *568:B I *D sky130_fd_sc_hd__nand2_1
*I *567:Y O *D sky130_fd_sc_hd__inv_2
*CAP
1 *599:C 0
2 *602:A1 0.000141218
3 *568:B 1.97046e-05
4 *567:Y 5.76219e-05
5 *112:18 0.00051156
6 *112:6 0.00040826
7 *568:B *146:78 5.62995e-05
8 *602:A1 *571:A 3.4537e-05
9 *602:A1 *144:93 5.33005e-05
10 *559:B1 *602:A1 0.000213498
11 *559:B1 *112:18 8.6229e-06
12 *565:B *112:18 0
13 *566:A *602:A1 2.06112e-05
14 *568:A *602:A1 9.83539e-06
15 *568:A *112:18 2.8266e-06
16 *599:B *568:B 5.33334e-05
17 *602:B1 *112:6 3.69047e-06
18 *103:17 *112:18 1.01912e-05
*RES
1 *567:Y *112:6 10.2464 
2 *112:6 *112:18 12.4971 
3 *112:18 *568:B 14.7464 
4 *112:18 *602:A1 17.1929 
5 *112:6 *599:C 9.3 
*END

*D_NET *113 0.00162558
*CONN
*I *571:A I *D sky130_fd_sc_hd__nand2_1
*I *568:Y O *D sky130_fd_sc_hd__nand2_1
*CAP
1 *571:A 0.000470827
2 *568:Y 0.000470827
3 *571:A *600:B 2.59355e-05
4 *571:A *685:A 0.000195856
5 *571:A *116:8 0
6 *563:B *571:A 3.06393e-05
7 *566:A *571:A 9.59532e-06
8 *602:A1 *571:A 3.4537e-05
9 *602:B1 *571:A 7.74135e-05
10 *26:10 *571:A 0.000117381
11 *44:10 *571:A 6.84398e-05
12 *101:33 *571:A 0.000124128
*RES
1 *568:Y *571:A 38.35 
*END

*D_NET *114 0.00185502
*CONN
*I *615:B1 I *D sky130_fd_sc_hd__o211a_1
*I *570:A I *D sky130_fd_sc_hd__nand2_1
*I *569:Y O *D sky130_fd_sc_hd__nor2_1
*CAP
1 *615:B1 0.000354848
2 *570:A 0.000194366
3 *569:Y 4.47931e-05
4 *114:8 0.000594007
5 *570:A *570:B 2.8266e-06
6 *570:A *610:B 2.84109e-05
7 *570:A *708:A 4.13122e-06
8 *615:B1 *615:A2 3.25642e-05
9 *615:B1 *708:A 6.13643e-05
10 *546:A *615:B1 5.49544e-05
11 *553:A *615:B1 0.000150264
12 *557:B *570:A 6.94534e-05
13 *569:A *570:A 7.6612e-06
14 *569:A *114:8 9.35114e-06
15 *569:B *114:8 4.90701e-06
16 *611:A *570:A 3.08664e-05
17 *87:16 *615:B1 0.00021025
*RES
1 *569:Y *114:8 14.3357 
2 *114:8 *570:A 17.4964 
3 *114:8 *615:B1 20.9964 
*END

*D_NET *115 0.00222343
*CONN
*I *596:A I *D sky130_fd_sc_hd__inv_2
*I *589:A1 I *D sky130_fd_sc_hd__o21ai_1
*I *571:B I *D sky130_fd_sc_hd__nand2_1
*I *570:Y O *D sky130_fd_sc_hd__nand2_1
*CAP
1 *596:A 0
2 *589:A1 0.000191076
3 *571:B 0.000101385
4 *570:Y 8.93335e-05
5 *115:16 0.000545595
6 *115:8 0.000342467
7 *571:B *572:B 0
8 *571:B *117:14 0.000120339
9 *571:B *146:16 0
10 *589:A1 *572:B 0.000230568
11 *589:A1 *146:14 1.24368e-05
12 *115:8 *610:B 0.000371447
13 *115:16 *589:A2 0
14 *603:A2 *115:8 3.93247e-05
15 *603:B1 *115:16 0
16 *611:A *115:8 0.000108289
17 *626:C *589:A1 2.97489e-05
18 *626:C *115:16 0
19 *101:33 *571:B 9.92439e-06
20 *101:33 *115:16 3.14996e-05
*RES
1 *570:Y *115:8 13.1393 
2 *115:8 *115:16 8.32143 
3 *115:16 *571:B 15.7464 
4 *115:16 *589:A1 17.7643 
5 *115:8 *596:A 9.3 
*END

*D_NET *116 0.000491533
*CONN
*I *573:A I *D sky130_fd_sc_hd__nand2_1
*I *624:A I *D sky130_fd_sc_hd__nand3_1
*I *571:Y O *D sky130_fd_sc_hd__nand2_1
*CAP
1 *573:A 0
2 *624:A 8.21744e-06
3 *571:Y 9.13495e-05
4 *116:8 9.9567e-05
5 *624:A *624:C 5.65955e-05
6 *624:A *118:6 2.36643e-05
7 *116:8 *623:A 0
8 *116:8 *624:C 4.52411e-05
9 *116:8 *117:14 5.66971e-05
10 *116:8 *118:6 5.65955e-05
11 *571:A *116:8 0
12 *101:33 *116:8 3.24049e-05
13 *105:36 *116:8 2.12005e-05
*RES
1 *571:Y *116:8 11.9071 
2 *116:8 *624:A 9.83571 
3 *116:8 *573:A 9.3 
*END

*D_NET *117 0.00106584
*CONN
*I *624:C I *D sky130_fd_sc_hd__nand3_1
*I *573:B I *D sky130_fd_sc_hd__nand2_1
*I *572:Y O *D sky130_fd_sc_hd__nand2_1
*CAP
1 *624:C 0.000119699
2 *573:B 0
3 *572:Y 0.00013355
4 *117:14 0.000253249
5 *624:C *118:6 4.40153e-05
6 *571:B *117:14 0.000120339
7 *572:A *117:14 1.21258e-05
8 *624:A *624:C 5.65955e-05
9 *625:A *117:14 1.24368e-05
10 *625:B *624:C 9.99853e-05
11 *101:33 *624:C 1.32293e-05
12 *101:33 *117:14 9.86782e-05
13 *116:8 *624:C 4.52411e-05
14 *116:8 *117:14 5.66971e-05
*RES
1 *572:Y *117:14 21.0143 
2 *117:14 *573:B 9.3 
3 *117:14 *624:C 12.3179 
*END

*D_NET *118 0.00138313
*CONN
*I *623:A I *D sky130_fd_sc_hd__nand2_1
*I *574:A I *D sky130_fd_sc_hd__inv_2
*I *573:Y O *D sky130_fd_sc_hd__nand2_1
*CAP
1 *623:A 2.97323e-05
2 *574:A 0.000286349
3 *573:Y 6.65033e-05
4 *118:6 0.000382585
5 *574:A *605:A1 2.80728e-05
6 *574:A *624:B 2.89791e-05
7 *574:A *144:23 1.6603e-05
8 *574:A *144:29 4.96113e-05
9 *574:A *144:50 5.67971e-05
10 *606:B *574:A 1.47872e-05
11 *624:A *118:6 2.36643e-05
12 *624:C *118:6 4.40153e-05
13 *105:36 *623:A 2.94517e-05
14 *105:36 *118:6 0.000269385
15 *116:8 *623:A 0
16 *116:8 *118:6 5.65955e-05
*RES
1 *573:Y *118:6 11.8893 
2 *118:6 *574:A 23.55 
3 *118:6 *623:A 10.0321 
*END

*D_NET *119 0.00273846
*CONN
*I *576:B1_N I *D sky130_fd_sc_hd__o21bai_1
*I *617:A2 I *D sky130_fd_sc_hd__a211oi_1
*I *575:Y O *D sky130_fd_sc_hd__nand2_1
*CAP
1 *576:B1_N 1.99857e-05
2 *617:A2 3.09404e-05
3 *575:Y 0.00108675
4 *119:12 0.00113767
5 *576:B1_N *616:B 0
6 *119:12 *577:A 0.000117621
7 *119:12 *583:A 0.000183726
8 *576:A2 *576:B1_N 1.04232e-05
9 *576:A2 *617:A2 2.89016e-05
10 *576:A2 *119:12 0.000122436
*RES
1 *575:Y *119:12 36.1929 
2 *119:12 *617:A2 9.83571 
3 *119:12 *576:B1_N 9.72857 
*END

*D_NET *120 0.000415994
*CONN
*I *577:A I *D sky130_fd_sc_hd__nand2_1
*I *576:Y O *D sky130_fd_sc_hd__o21bai_1
*CAP
1 *577:A 0.000139636
2 *576:Y 0.000139636
3 *576:A2 *577:A 1.91004e-05
4 *119:12 *577:A 0.000117621
*RES
1 *576:Y *577:A 21.6357 
*END

*D_NET *121 0.000678915
*CONN
*I *583:A I *D sky130_fd_sc_hd__nand2_1
*I *577:Y O *D sky130_fd_sc_hd__nand2_1
*CAP
1 *583:A 0.000197507
2 *577:Y 0.000197507
3 *583:A *582:B 0
4 *583:A *129:12 5.23085e-05
5 *545:A *583:A 2.11419e-05
6 *594:A *583:A 2.6725e-05
7 *119:12 *583:A 0.000183726
*RES
1 *577:Y *583:A 31.0107 
*END

*D_NET *122 0.0022035
*CONN
*I *638:A I *D sky130_fd_sc_hd__or2_1
*I *579:B I *D sky130_fd_sc_hd__nor2_1
*I *578:Y O *D sky130_fd_sc_hd__nand2_1
*CAP
1 *638:A 8.16178e-05
2 *579:B 0.000599115
3 *578:Y 0.000112569
4 *122:10 0.000793302
5 *579:B *550:A 1.10632e-05
6 *579:B *578:A 2.60898e-05
7 *579:B *123:8 5.33005e-05
8 *579:B *176:16 6.13307e-05
9 *122:10 *578:A 1.36212e-05
10 *122:10 *175:41 0.000186669
11 *579:A *579:B 1.33343e-05
12 *59:14 *579:B 1.90936e-05
13 *59:26 *638:A 0
14 *63:8 *638:A 0
15 *82:10 *122:10 0.000232399
16 *98:20 *122:10 0
*RES
1 *578:Y *122:10 17.1661 
2 *122:10 *579:B 23.6122 
3 *122:10 *638:A 14.9875 
*END

*D_NET *123 0.00367239
*CONN
*I *642:C I *D sky130_fd_sc_hd__nand3_1
*I *580:B I *D sky130_fd_sc_hd__nor2_1
*I *579:Y O *D sky130_fd_sc_hd__nor2_1
*CAP
1 *642:C 0.000549445
2 *580:B 0.000221427
3 *579:Y 4.36033e-05
4 *123:8 0.000814476
5 *580:B *143:16 4.46186e-06
6 *642:C *537:B 0.000227179
7 *536:A *580:B 0.000410867
8 *536:B *580:B 0.000224596
9 *579:B *123:8 5.33005e-05
10 *639:A *642:C 7.17807e-05
11 *648:B_N *642:C 0.000144732
12 *17:130 *580:B 9.02232e-05
13 *59:14 *580:B 0.000265031
14 *59:14 *642:C 0.000351326
15 *74:14 *642:C 6.37923e-05
16 *74:25 *642:C 6.05161e-06
17 *98:20 *580:B 9.928e-05
18 *98:20 *642:C 3.08135e-05
*RES
1 *579:Y *123:8 14.3357 
2 *123:8 *580:B 21.0857 
3 *123:8 *642:C 25.2107 
*END

*D_NET *124 0.00191923
*CONN
*I *617:C1 I *D sky130_fd_sc_hd__a211oi_1
*I *593:A I *D sky130_fd_sc_hd__nand2_1
*I *582:A I *D sky130_fd_sc_hd__nand3_1
*I *580:Y O *D sky130_fd_sc_hd__nor2_1
*CAP
1 *617:C1 0
2 *593:A 0
3 *582:A 0.000122023
4 *580:Y 0.000270972
5 *124:16 0.000282871
6 *124:10 0.00043182
7 *582:A *583:B 7.43578e-06
8 *124:10 *582:B 0
9 *124:10 *616:B 9.99989e-05
10 *124:10 *148:18 0.000311028
11 *124:16 *582:B 0
12 *536:B *124:10 0.000139907
13 *544:B *582:A 4.36962e-05
14 *545:A *124:16 2.09826e-05
15 *594:A *582:A 4.70078e-05
16 *616:A *124:16 4.45881e-05
17 *617:A1 *124:16 6.42338e-05
18 *17:130 *124:10 9.25014e-06
19 *59:14 *124:10 0
20 *59:14 *124:16 0
21 *87:16 *124:10 0
22 *89:16 *124:16 5.80706e-06
23 *90:108 *124:16 1.76039e-05
*RES
1 *580:Y *124:10 19.5321 
2 *124:10 *124:16 7.28571 
3 *124:16 *582:A 11.925 
4 *124:16 *593:A 9.3 
5 *124:10 *617:C1 13.8 
*END

*D_NET *125 0.00286899
*CONN
*I *585:A I *D sky130_fd_sc_hd__nor2_1
*I *616:B I *D sky130_fd_sc_hd__nand2_1
*I *582:B I *D sky130_fd_sc_hd__nand3_1
*I *581:Y O *D sky130_fd_sc_hd__inv_2
*CAP
1 *585:A 0
2 *616:B 0.000247509
3 *582:B 0.000259955
4 *581:Y 0.000185836
5 *125:8 0.000693301
6 *582:B *583:B 2.89114e-05
7 *582:B *129:12 0
8 *616:B *143:16 0.000139019
9 *616:B *143:80 1.38323e-05
10 *616:B *148:18 5.7661e-06
11 *125:8 *129:12 4.35336e-05
12 *125:8 *143:6 1.04232e-05
13 *125:8 *143:80 0.00044852
14 *540:B *616:B 5.33005e-05
15 *540:B *125:8 4.22602e-05
16 *576:A1 *582:B 0
17 *576:A2 *582:B 0.000173804
18 *576:B1_N *616:B 0
19 *582:C *582:B 8.6229e-06
20 *583:A *582:B 0
21 *585:B *582:B 7.90803e-05
22 *585:B *125:8 5.52302e-05
23 *594:A *582:B 6.53725e-05
24 *616:A *582:B 3.0305e-05
25 *616:A *616:B 7.82542e-06
26 *617:B1 *616:B 1.04232e-05
27 *59:14 *616:B 0
28 *86:12 *582:B 3.17148e-05
29 *87:16 *616:B 0.000134441
30 *124:10 *582:B 0
31 *124:10 *616:B 9.99989e-05
32 *124:16 *582:B 0
*RES
1 *581:Y *125:8 14.7821 
2 *125:8 *582:B 23.5143 
3 *125:8 *616:B 24.3268 
4 *125:8 *585:A 9.3 
*END

*D_NET *126 0.000464861
*CONN
*I *583:B I *D sky130_fd_sc_hd__nand2_1
*I *582:Y O *D sky130_fd_sc_hd__nand3_1
*CAP
1 *583:B 0.000163182
2 *582:Y 0.000163182
3 *583:B *127:10 3.03973e-05
4 *582:A *583:B 7.43578e-06
5 *582:B *583:B 2.89114e-05
6 *582:C *583:B 8.22793e-06
7 *594:A *583:B 3.64656e-05
8 *89:16 *583:B 2.70591e-05
*RES
1 *582:Y *583:B 30.6536 
*END

*D_NET *127 0.00178349
*CONN
*I *595:B I *D sky130_fd_sc_hd__nor2_1
*I *591:A I *D sky130_fd_sc_hd__or3_1
*I *583:Y O *D sky130_fd_sc_hd__nand2_1
*CAP
1 *595:B 0
2 *591:A 0.000289177
3 *583:Y 0.000164994
4 *127:10 0.000454171
5 *591:A *589:B1 0.000180202
6 *591:A *592:A 0.000148903
7 *591:A *129:12 0
8 *591:A *146:10 6.62058e-05
9 *127:10 *129:12 0
10 *583:B *127:10 3.03973e-05
11 *594:A *127:10 0.000125724
12 *604:A *591:A 4.27842e-06
13 *621:C *591:A 5.50052e-05
14 *626:A *591:A 0.000126439
15 *38:10 *591:A 9.50822e-05
16 *45:10 *591:A 3.54808e-05
17 *89:16 *591:A 0
18 *89:16 *127:10 0
19 *92:14 *127:10 7.43578e-06
*RES
1 *583:Y *127:10 16.6929 
2 *127:10 *591:A 21.2107 
3 *127:10 *595:B 13.8 
*END

*D_NET *128 0.00217623
*CONN
*I *603:A1 I *D sky130_fd_sc_hd__a21oi_1
*I *589:A2 I *D sky130_fd_sc_hd__o21ai_1
*I *584:Y O *D sky130_fd_sc_hd__a21oi_1
*CAP
1 *603:A1 6.59684e-05
2 *589:A2 0.000358251
3 *584:Y 0.000471777
4 *128:8 0.000895997
5 *589:A2 *685:A 0
6 *589:A2 *146:14 2.13481e-06
7 *603:A1 *610:B 9.90367e-05
8 *128:8 *685:A 0
9 *128:8 *686:A 0
10 *622:A *589:A2 2.51343e-06
11 *626:C *589:A2 0.000230475
12 *3:23 *128:8 5.0077e-05
13 *115:16 *589:A2 0
*RES
1 *584:Y *128:8 22.1214 
2 *128:8 *589:A2 18.9429 
3 *128:8 *603:A1 14.7464 
*END

*D_NET *129 0.00150051
*CONN
*I *588:A I *D sky130_fd_sc_hd__nand2_1
*I *594:B I *D sky130_fd_sc_hd__nor2_1
*I *585:Y O *D sky130_fd_sc_hd__nor2_1
*CAP
1 *588:A 2.3401e-05
2 *594:B 0
3 *585:Y 0.000467788
4 *129:12 0.000491189
5 *588:A *588:B 5.33433e-05
6 *588:A *589:B1 5.33433e-05
7 *540:B *129:12 5.71472e-05
8 *545:A *129:12 2.11419e-05
9 *576:A1 *129:12 0.000175519
10 *577:B *129:12 0
11 *582:B *129:12 0
12 *583:A *129:12 5.23085e-05
13 *591:A *129:12 0
14 *594:A *129:12 0
15 *87:6 *129:12 5.71472e-05
16 *92:14 *129:12 4.64488e-06
17 *125:8 *129:12 4.35336e-05
18 *127:10 *129:12 0
*RES
1 *585:Y *129:12 27.175 
2 *129:12 *594:B 9.3 
3 *129:12 *588:A 10.2464 
*END

*D_NET *130 0.00204561
*CONN
*I *587:B I *D sky130_fd_sc_hd__and2_1
*I *600:B I *D sky130_fd_sc_hd__nor2_1
*I *586:Y O *D sky130_fd_sc_hd__inv_2
*CAP
1 *587:B 0.00040232
2 *600:B 0.000178506
3 *586:Y 0
4 *130:4 0.000580826
5 *587:B *555:B 1.98839e-05
6 *587:B *591:C 3.79779e-05
7 *587:B *592:A 2.39876e-05
8 *587:B *145:23 7.55435e-05
9 *600:B *542:A 5.50052e-05
10 *600:B *555:B 9.67754e-05
11 *600:B *144:103 2.19818e-05
12 *571:A *600:B 2.59355e-05
13 *604:B *587:B 9.96553e-05
14 *45:10 *587:B 0.000187331
15 *89:16 *587:B 1.52978e-05
16 *90:87 *587:B 0
17 *101:33 *600:B 0.000224582
*RES
1 *586:Y *130:4 9.3 
2 *130:4 *600:B 13.5679 
3 *130:4 *587:B 25.2643 
*END

*D_NET *131 0.00570993
*CONN
*I *593:B I *D sky130_fd_sc_hd__nand2_1
*I *588:B I *D sky130_fd_sc_hd__nand2_1
*I *610:B I *D sky130_fd_sc_hd__nor2_1
*I *587:X O *D sky130_fd_sc_hd__and2_1
*CAP
1 *593:B 8.8254e-05
2 *588:B 0.000509904
3 *610:B 0.00102809
4 *587:X 0.000222444
5 *131:25 0.000707661
6 *131:8 0.00136004
7 *588:B *141:8 2.47833e-05
8 *131:8 *592:A 1.24368e-05
9 *569:A *588:B 1.58163e-05
10 *570:A *610:B 2.84109e-05
11 *588:A *588:B 5.33433e-05
12 *594:A *588:B 9.90431e-05
13 *595:A *588:B 1.74352e-05
14 *603:A1 *610:B 9.90367e-05
15 *603:A2 *610:B 1.77294e-05
16 *603:B1 *610:B 0.000143557
17 *611:A *610:B 0.000107302
18 *626:A *131:8 0.000245383
19 *45:10 *610:B 7.28899e-05
20 *48:8 *610:B 3.99614e-06
21 *59:14 *593:B 0
22 *59:14 *131:25 0
23 *89:12 *610:B 7.32272e-05
24 *89:12 *131:8 3.68898e-05
25 *90:87 *131:25 0.00012401
26 *90:108 *593:B 0.000174542
27 *90:108 *131:25 7.22594e-05
28 *115:8 *610:B 0.000371447
*RES
1 *587:X *131:8 13.55 
2 *131:8 *610:B 25.9071 
3 *131:8 *131:25 7.05357 
4 *131:25 *588:B 22.175 
5 *131:25 *593:B 16.05 
*END

*D_NET *132 0.00226407
*CONN
*I *589:B1 I *D sky130_fd_sc_hd__o21ai_1
*I *588:Y O *D sky130_fd_sc_hd__nand2_1
*CAP
1 *589:B1 0.000537339
2 *588:Y 0.000537339
3 *589:B1 *591:B 0.000445577
4 *589:B1 *592:A 2.89114e-05
5 *589:B1 *146:8 4.94761e-05
6 *589:B1 *146:10 7.43027e-05
7 *589:B1 *146:14 4.04683e-05
8 *588:A *589:B1 5.33433e-05
9 *591:A *589:B1 0.000180202
10 *622:A *589:B1 0.000119969
11 *626:A *589:B1 2.89114e-05
12 *38:10 *589:B1 0.000168226
*RES
1 *588:Y *589:B1 40.9571 
*END

*D_NET *133 0.00100204
*CONN
*I *591:B I *D sky130_fd_sc_hd__or3_1
*I *589:Y O *D sky130_fd_sc_hd__o21ai_1
*CAP
1 *591:B 0.000220974
2 *589:Y 0.000220974
3 *589:B1 *591:B 0.000445577
4 *622:A *591:B 1.35553e-05
5 *626:B *591:B 0.00010096
*RES
1 *589:Y *591:B 23.6714 
*END

*D_NET *134 0.00125207
*CONN
*I *591:C I *D sky130_fd_sc_hd__or3_1
*I *590:X O *D sky130_fd_sc_hd__o311a_1
*CAP
1 *591:C 0.000319152
2 *590:X 0.000319152
3 *591:C *590:A2 2.33087e-05
4 *591:C *144:93 2.11336e-05
5 *591:C *144:103 0.000289204
6 *591:C *146:72 0.000225139
7 *587:B *591:C 3.79779e-05
8 *90:87 *591:C 1.70057e-05
*RES
1 *590:X *591:C 35.4571 
*END

*D_NET *135 0.000763341
*CONN
*I *592:A I *D sky130_fd_sc_hd__clkbuf_1
*I *591:X O *D sky130_fd_sc_hd__or3_1
*CAP
1 *592:A 0.000176696
2 *591:X 0.000176696
3 *587:B *592:A 2.39876e-05
4 *589:B1 *592:A 2.89114e-05
5 *591:A *592:A 0.000148903
6 *626:A *592:A 9.41642e-05
7 *45:10 *592:A 0.000101545
8 *131:8 *592:A 1.24368e-05
*RES
1 *591:X *592:A 31.4393 
*END

*D_NET *136 0.00754716
*CONN
*I *671:D I *D sky130_fd_sc_hd__dfrtp_1
*I *608:Y O *D sky130_fd_sc_hd__a21oi_1
*CAP
1 *671:D 0.000768805
2 *608:Y 0.00219571
3 *136:42 0.00296452
4 *671:D *671:CLK 0.000177044
5 *671:D *148:18 1.24368e-05
6 *671:D *157:14 6.67587e-06
7 *136:42 *615:A2 0.000207076
8 *136:42 *146:33 0.000170436
9 *136:42 *173:43 0.000211585
10 *136:42 *174:14 0.000301452
11 *136:42 *175:8 0
12 *136:42 *175:34 0
13 *553:A *136:42 1.33846e-05
14 *606:B *136:42 9.58181e-05
15 *608:A2 *136:42 1.90936e-05
16 *636:A *136:42 0.000252196
17 *659:D *136:42 7.83659e-05
18 *17:80 *671:D 5.79335e-05
19 *92:18 *136:42 1.462e-05
*RES
1 *608:Y *136:42 45.7506 
2 *136:42 *671:D 23.4071 
*END

*D_NET *137 0.000899665
*CONN
*I *672:D I *D sky130_fd_sc_hd__dfrtp_1
*I *612:X O *D sky130_fd_sc_hd__clkbuf_1
*CAP
1 *672:D 0.000262013
2 *612:X 0.000262013
3 *672:D *658:CLK 0.000241044
4 *672:D *703:A 0.000100831
5 *49:22 *672:D 3.37643e-05
*RES
1 *612:X *672:D 31.9393 
*END

*D_NET *138 0.000773289
*CONN
*I *669:D I *D sky130_fd_sc_hd__dfrtp_1
*I *554:Y O *D sky130_fd_sc_hd__nor2_1
*CAP
1 *669:D 0.000266905
2 *554:Y 0.000266905
3 *669:D *670:D 0.000103253
4 *554:A *669:D 1.74352e-05
5 *554:B *669:D 2.89016e-05
6 *668:D *669:D 8.98897e-05
7 *17:154 *669:D 0
8 *17:156 *669:D 0
*RES
1 *554:Y *669:D 32.6 
*END

*D_NET *139 0.0002692
*CONN
*I *670:D I *D sky130_fd_sc_hd__dfrtp_1
*I *613:X O *D sky130_fd_sc_hd__a21o_1
*CAP
1 *670:D 3.04864e-05
2 *613:X 3.04864e-05
3 *668:D *670:D 0.000104974
4 *669:D *670:D 0.000103253
*RES
1 *613:X *670:D 28.9393 
*END

*D_NET *140 0.00190035
*CONN
*I *667:D I *D sky130_fd_sc_hd__dfrtp_1
*I *614:Y O *D sky130_fd_sc_hd__o21ai_1
*CAP
1 *667:D 0.000655868
2 *614:Y 0.000655868
3 *667:D *667:CLK 9.90367e-05
4 *667:D *669:CLK 0.000281059
5 *667:D *142:76 1.52978e-05
6 *667:D *142:87 0.000193221
*RES
1 *614:Y *667:D 42.2607 
*END

*D_NET *141 0.00431179
*CONN
*I *686:A I *D sky130_fd_sc_hd__clkbuf_16
*I *685:A I *D sky130_fd_sc_hd__clkbuf_16
*I *684:X O *D sky130_fd_sc_hd__clkbuf_16
*CAP
1 *686:A 0.0004884
2 *685:A 0.000550745
3 *684:X 0.000279031
4 *141:8 0.00131818
5 *685:A *542:A 4.64616e-05
6 *686:A *584:A1 0
7 *569:A *141:8 0.000310292
8 *571:A *685:A 0.000195856
9 *588:B *141:8 2.47833e-05
10 *589:A2 *685:A 0
11 *603:B1 *685:A 0.000144237
12 *626:C *685:A 9.11365e-06
13 *3:23 *686:A 0
14 *44:10 *685:A 0.00035502
15 *59:14 *685:A 7.8327e-05
16 *59:14 *686:A 0.00027084
17 *89:12 *685:A 5.19269e-05
18 *98:20 *686:A 0.000188586
19 *128:8 *685:A 0
20 *128:8 *686:A 0
*RES
1 *684:X *141:8 17.6214 
2 *141:8 *685:A 26.2821 
3 *141:8 *686:A 24.9607 
*END

*D_NET *142 0.0172339
*CONN
*I *675:CLK I *D sky130_fd_sc_hd__dfrtp_4
*I *674:CLK I *D sky130_fd_sc_hd__dfrtp_1
*I *680:CLK I *D sky130_fd_sc_hd__dfrtp_1
*I *681:CLK I *D sky130_fd_sc_hd__dfrtp_1
*I *677:CLK I *D sky130_fd_sc_hd__dfrtp_1
*I *682:CLK I *D sky130_fd_sc_hd__dfrtp_1
*I *678:CLK I *D sky130_fd_sc_hd__dfrtp_1
*I *666:CLK I *D sky130_fd_sc_hd__dfrtp_1
*I *669:CLK I *D sky130_fd_sc_hd__dfrtp_1
*I *673:CLK I *D sky130_fd_sc_hd__dfrtp_4
*I *668:CLK I *D sky130_fd_sc_hd__dfrtp_1
*I *667:CLK I *D sky130_fd_sc_hd__dfrtp_1
*I *665:CLK I *D sky130_fd_sc_hd__dfrtp_1
*I *683:CLK I *D sky130_fd_sc_hd__dfrtp_1
*I *679:CLK I *D sky130_fd_sc_hd__dfrtp_1
*I *676:CLK I *D sky130_fd_sc_hd__dfrtp_1
*I *685:X O *D sky130_fd_sc_hd__clkbuf_16
*CAP
1 *675:CLK 0.000566499
2 *674:CLK 9.19622e-05
3 *680:CLK 0.00015723
4 *681:CLK 0
5 *677:CLK 3.82418e-05
6 *682:CLK 4.95864e-05
7 *678:CLK 0
8 *666:CLK 6.17776e-06
9 *669:CLK 0.000364401
10 *673:CLK 0
11 *668:CLK 6.06019e-05
12 *667:CLK 4.05809e-05
13 *665:CLK 4.63547e-05
14 *683:CLK 0.000162206
15 *679:CLK 0.000388158
16 *676:CLK 0.00019353
17 *685:X 0.000735799
18 *142:170 0.00080225
19 *142:120 5.16233e-05
20 *142:89 6.06019e-05
21 *142:87 0.000558978
22 *142:76 0.000375096
23 *142:65 0.000302333
24 *142:45 0.000755282
25 *142:37 0.00071846
26 *142:33 0.00105167
27 *142:31 0.00123896
28 *142:29 0.00163964
29 *142:14 0.00129636
30 *142:12 0.000197055
31 *142:10 0.000724646
32 *142:8 0.00133203
33 *675:CLK *146:8 0.000280061
34 *676:CLK *676:D 2.27416e-05
35 *676:CLK *681:D 2.50656e-05
36 *679:CLK *679:D 5.04705e-05
37 *680:CLK *680:D 6.05161e-06
38 *682:CLK *682:D 0.000101545
39 *683:CLK *683:D 2.65105e-05
40 *142:14 *681:D 2.77154e-05
41 *142:29 *681:D 0.000114906
42 *142:33 *678:D 0.000173084
43 clk_gate_en *142:45 2.94387e-05
44 clk_gate_en *142:65 0
45 clk_gate_en *142:87 0
46 *614:A1 *669:CLK 3.87535e-05
47 *665:D *142:65 0
48 *665:D *142:76 0
49 *665:D *142:87 0
50 *666:D *666:CLK 5.65955e-05
51 *666:D *682:CLK 0.000125731
52 *666:D *142:33 1.55234e-05
53 *666:D *142:37 2.70242e-05
54 *666:D *142:120 2.36643e-05
55 *666:RESET_B *142:37 0.000265731
56 *666:RESET_B *142:45 0
57 *667:D *667:CLK 9.90367e-05
58 *667:D *669:CLK 0.000281059
59 *667:D *142:76 1.52978e-05
60 *667:D *142:87 0.000193221
61 *675:RESET_B *675:CLK 4.87528e-05
62 *678:RESET_B *142:33 4.85567e-05
63 *679:RESET_B *679:CLK 6.66717e-06
64 *679:RESET_B *683:CLK 0.000119193
65 *679:RESET_B *142:45 5.14847e-05
66 *690:A *679:CLK 6.05161e-06
67 *17:160 *142:87 0
68 *17:173 *665:CLK 3.67142e-05
69 *17:237 *142:31 0.000739952
70 *17:237 *142:33 0.000139913
71 *90:8 *142:8 3.11088e-05
*RES
1 *685:X *142:8 26.2464 
2 *142:8 *142:10 8.01786 
3 *142:10 *142:12 1.94643 
4 *142:12 *142:14 1.64286 
5 *142:14 *676:CLK 17.4964 
6 *142:14 *142:29 16.5357 
7 *142:29 *142:31 8.33929 
8 *142:31 *142:33 7.92857 
9 *142:33 *142:37 9.96429 
10 *142:37 *142:45 8.42857 
11 *142:45 *679:CLK 16.0143 
12 *142:45 *683:CLK 12.7286 
13 *142:37 *142:65 1.94643 
14 *142:65 *665:CLK 14.7464 
15 *142:65 *142:76 2.55357 
16 *142:76 *667:CLK 14.7464 
17 *142:76 *142:87 4.67857 
18 *142:87 *142:89 4.5 
19 *142:89 *668:CLK 10.2464 
20 *142:89 *673:CLK 9.3 
21 *142:87 *669:CLK 22.2821 
22 *142:33 *142:120 1.39286 
23 *142:120 *666:CLK 9.83571 
24 *142:120 *678:CLK 9.3 
25 *142:31 *682:CLK 19.9429 
26 *142:29 *677:CLK 10.0321 
27 *142:12 *681:CLK 13.8 
28 *142:10 *680:CLK 15.8893 
29 *142:8 *142:170 2.55357 
30 *142:170 *674:CLK 15.1571 
31 *142:170 *675:CLK 24.9964 
*END

*D_NET *143 0.0177363
*CONN
*I *664:CLK I *D sky130_fd_sc_hd__dfrtp_1
*I *662:CLK I *D sky130_fd_sc_hd__dfrtp_1
*I *661:CLK I *D sky130_fd_sc_hd__dfrtp_1
*I *672:CLK I *D sky130_fd_sc_hd__dfrtp_1
*I *658:CLK I *D sky130_fd_sc_hd__dfrtp_1
*I *663:CLK I *D sky130_fd_sc_hd__dfrtp_1
*I *660:CLK I *D sky130_fd_sc_hd__dfrtp_1
*I *659:CLK I *D sky130_fd_sc_hd__dfrtp_1
*I *657:CLK I *D sky130_fd_sc_hd__dfrtp_1
*I *671:CLK I *D sky130_fd_sc_hd__dfrtp_1
*I *656:CLK I *D sky130_fd_sc_hd__dfstp_1
*I *670:CLK I *D sky130_fd_sc_hd__dfrtp_1
*I *687:A I *D sky130_fd_sc_hd__bufinv_16
*I *686:X O *D sky130_fd_sc_hd__clkbuf_16
*CAP
1 *664:CLK 0
2 *662:CLK 0
3 *661:CLK 0
4 *672:CLK 0
5 *658:CLK 0.000283695
6 *663:CLK 0
7 *660:CLK 8.90243e-05
8 *659:CLK 0
9 *657:CLK 0.00049339
10 *671:CLK 0.000469746
11 *656:CLK 0
12 *670:CLK 0.000330875
13 *687:A 0
14 *686:X 1.99857e-05
15 *143:118 0.000431724
16 *143:116 0.000615929
17 *143:114 0.00107206
18 *143:101 0.000716519
19 *143:95 0.000411985
20 *143:80 0.000967302
21 *143:33 0.00052661
22 *143:27 0.000665481
23 *143:25 0.000882069
24 *143:16 0.00107096
25 *143:6 0.00128091
26 *657:CLK *159:27 6.595e-05
27 *657:CLK *173:8 9.76689e-05
28 *658:CLK *703:A 3.54808e-05
29 *671:CLK *174:14 0
30 *143:33 *618:A 0.000274294
31 *143:101 *538:A 9.52477e-05
32 *143:101 *538:B 4.68201e-05
33 *536:A *143:16 5.52238e-05
34 *580:B *143:16 4.46186e-06
35 *614:A1 *670:CLK 2.00751e-05
36 *615:A1 *143:33 5.83304e-05
37 *616:B *143:16 0.000139019
38 *616:B *143:80 1.38323e-05
39 *620:A *671:CLK 0
40 *620:A *143:33 8.07313e-05
41 *629:B *671:CLK 0.000147089
42 *631:A *671:CLK 2.56723e-05
43 *644:B *143:118 1.55885e-05
44 *650:B *143:114 0
45 *652:B *143:114 0.000134788
46 *653:A *143:101 1.00887e-05
47 *653:A *143:114 0.000112635
48 *654:B *143:95 0.00011307
49 *654:B *143:101 0.000195126
50 *654:B *143:114 5.533e-05
51 *656:D *670:CLK 0
52 *656:SET_B *657:CLK 0.000119125
53 *656:SET_B *670:CLK 2.59355e-05
54 *656:SET_B *143:25 0.000160564
55 *656:SET_B *143:33 4.87953e-05
56 *658:RESET_B *143:116 0.000198623
57 *659:D *143:25 0.000196592
58 *659:RESET_B *143:25 2.72654e-05
59 *660:D *143:80 1.02504e-05
60 *660:D *143:95 0.000283983
61 *660:RESET_B *143:114 0
62 *661:D *143:116 7.27949e-05
63 *661:D *143:118 7.32272e-05
64 *661:RESET_B *143:116 2.72654e-05
65 *662:RESET_B *143:114 0.000179995
66 *664:D *143:101 0.000137639
67 *668:D *670:CLK 0.00026703
68 *671:D *671:CLK 0.000177044
69 *672:D *658:CLK 0.000241044
70 *672:RESET_B *658:CLK 6.33385e-05
71 *672:RESET_B *143:118 3.14078e-05
72 *17:37 *143:114 0.000447622
73 *17:49 *143:114 0.000255276
74 *17:49 *143:116 0.000224521
75 *17:80 *671:CLK 5.23822e-05
76 *17:130 *143:16 0.000268682
77 *17:130 *143:25 0.00020199
78 *17:154 *670:CLK 0
79 *49:22 *658:CLK 3.62988e-05
80 *49:22 *670:CLK 0.000723813
81 *59:14 *143:16 4.90689e-05
82 *59:58 *671:CLK 9.1678e-05
83 *87:16 *143:16 1.34703e-05
84 *94:12 *671:CLK 0.00010326
85 *94:34 *671:CLK 0.000126439
86 *94:34 *143:33 0.000137939
87 *98:20 *143:16 7.82083e-05
88 *125:8 *143:6 1.04232e-05
89 *125:8 *143:80 0.00044852
*RES
1 *686:X *143:6 9.72857 
2 *143:6 *143:16 20.75 
3 *143:16 *687:A 9.3 
4 *143:16 *143:25 9.58929 
5 *143:25 *143:27 4.5 
6 *143:27 *143:33 10.0536 
7 *143:33 *670:CLK 28.675 
8 *143:33 *656:CLK 9.3 
9 *143:27 *671:CLK 24.3179 
10 *143:25 *657:CLK 18.4607 
11 *143:25 *659:CLK 9.3 
12 *143:6 *143:80 13.8214 
13 *143:80 *660:CLK 15.175 
14 *143:80 *143:95 11.6071 
15 *143:95 *143:101 8.41071 
16 *143:101 *663:CLK 13.8 
17 *143:101 *143:114 19.0893 
18 *143:114 *143:116 10.8036 
19 *143:116 *143:118 3 
20 *143:118 *658:CLK 24.1036 
21 *143:118 *672:CLK 9.3 
22 *143:116 *661:CLK 9.3 
23 *143:114 *662:CLK 9.3 
24 *143:95 *664:CLK 9.3 
*END

*D_NET *144 0.00912138
*CONN
*I *590:A1 I *D sky130_fd_sc_hd__o311a_1
*I *555:A I *D sky130_fd_sc_hd__nand2_1
*I *542:A I *D sky130_fd_sc_hd__nor2_1
*I *624:B I *D sky130_fd_sc_hd__nand3_1
*I *570:B I *D sky130_fd_sc_hd__nand2_1
*I *606:A I *D sky130_fd_sc_hd__nor2_1
*I *605:A1 I *D sky130_fd_sc_hd__o21a_1
*I *560:A I *D sky130_fd_sc_hd__inv_2
*I *673:Q O *D sky130_fd_sc_hd__dfrtp_4
*CAP
1 *590:A1 0
2 *555:A 0
3 *542:A 0.00012869
4 *624:B 0.000133772
5 *570:B 0.00036523
6 *606:A 3.62706e-05
7 *605:A1 0.000242935
8 *560:A 0
9 *673:Q 2.84371e-05
10 *144:103 0.000555767
11 *144:93 0.00088321
12 *144:50 0.00076758
13 *144:29 0.000695552
14 *144:23 0.00041544
15 *144:15 0.000705724
16 *144:6 8.28973e-05
17 *570:B *609:A 0.000114197
18 *144:50 *609:A 8.95675e-06
19 *144:50 *146:33 5.7903e-06
20 *144:93 *590:A2 5.66971e-05
21 *144:103 *555:B 6.3629e-05
22 *144:103 *145:23 0.000137639
23 *144:103 *146:72 1.50223e-05
24 *542:B *542:A 5.00087e-06
25 *557:B *570:B 0.00012306
26 *570:A *570:B 2.8266e-06
27 *574:A *605:A1 2.80728e-05
28 *574:A *624:B 2.89791e-05
29 *574:A *144:23 1.6603e-05
30 *574:A *144:29 4.96113e-05
31 *574:A *144:50 5.67971e-05
32 *590:B1 *542:A 2.39152e-05
33 *590:B1 *144:93 4.58502e-05
34 *590:C1 *144:93 5.33005e-05
35 *591:C *144:93 2.11336e-05
36 *591:C *144:103 0.000289204
37 *597:A *144:15 5.49544e-05
38 *597:A *144:93 4.17433e-05
39 *600:B *542:A 5.50052e-05
40 *600:B *144:103 2.19818e-05
41 *602:A1 *144:93 5.33005e-05
42 *602:A2 *144:93 7.34096e-05
43 *602:B1 *144:93 8.02315e-05
44 *605:A2 *605:A1 0.000143375
45 *606:B *606:A 5.38444e-06
46 *606:B *144:29 0.000224348
47 *606:B *144:50 0.000148233
48 *608:A2 *605:A1 0.000193868
49 *608:A2 *144:50 6.43513e-05
50 *608:B1 *144:50 3.08664e-05
51 *609:B *570:B 0.000273545
52 *625:A *144:50 9.15842e-06
53 *673:RESET_B *605:A1 0.000218622
54 *685:A *542:A 4.64616e-05
55 *44:10 *144:93 2.85321e-05
56 *47:10 *570:B 0.000141734
57 *88:12 *570:B 0
58 *88:48 *570:B 0
59 *89:12 *542:A 9.54798e-06
60 *90:20 *144:93 0.000347173
61 *90:30 *144:93 0.000313215
62 *90:38 *605:A1 8.55561e-05
63 *101:33 *542:A 2.50593e-05
64 *105:8 *144:15 5.49489e-05
65 *105:8 *144:93 5.33005e-05
66 *105:14 *144:23 3.12359e-05
67 *105:36 *144:23 0.000104443
*RES
1 *673:Q *144:6 9.83571 
2 *144:6 *560:A 9.3 
3 *144:6 *144:15 1.375 
4 *144:15 *144:23 8.53571 
5 *144:23 *144:29 11.1786 
6 *144:29 *605:A1 21.2643 
7 *144:29 *144:50 10.1964 
8 *144:50 *606:A 10.0321 
9 *144:50 *570:B 35.6214 
10 *144:23 *624:B 16.05 
11 *144:15 *144:93 11.6786 
12 *144:93 *144:103 17.5179 
13 *144:103 *542:A 21.0857 
14 *144:103 *555:A 9.3 
15 *144:93 *590:A1 9.3 
*END

*D_NET *145 0.00151428
*CONN
*I *586:A I *D sky130_fd_sc_hd__inv_2
*I *555:B I *D sky130_fd_sc_hd__nand2_1
*I *543:A I *D sky130_fd_sc_hd__clkbuf_2
*I *674:Q O *D sky130_fd_sc_hd__dfrtp_1
*CAP
1 *586:A 0
2 *555:B 4.31463e-05
3 *543:A 0.000134435
4 *674:Q 0.000173394
5 *145:23 0.000209328
6 *145:6 0.000474011
7 *145:6 *675:D 8.6608e-06
8 *587:B *555:B 1.98839e-05
9 *587:B *145:23 7.55435e-05
10 *600:B *555:B 9.67754e-05
11 *604:A *145:6 2.11336e-05
12 *604:B *145:23 5.66971e-05
13 *144:103 *555:B 6.3629e-05
14 *144:103 *145:23 0.000137639
*RES
1 *674:Q *145:6 11.4786 
2 *145:6 *543:A 20.55 
3 *145:6 *145:23 4.16071 
4 *145:23 *555:B 10.6571 
5 *145:23 *586:A 9.3 
*END

*D_NET *146 0.0114595
*CONN
*I *621:B I *D sky130_fd_sc_hd__nand3_1
*I *559:A1 I *D sky130_fd_sc_hd__o21a_1
*I *563:A I *D sky130_fd_sc_hd__nor2_1
*I *541:A I *D sky130_fd_sc_hd__inv_6
*I *572:B I *D sky130_fd_sc_hd__nand2_1
*I *609:A I *D sky130_fd_sc_hd__nor2_1
*I *608:A1 I *D sky130_fd_sc_hd__a21oi_1
*I *600:A I *D sky130_fd_sc_hd__nor2_1
*I *675:Q O *D sky130_fd_sc_hd__dfrtp_4
*CAP
1 *621:B 2.13113e-05
2 *559:A1 0
3 *563:A 2.82008e-05
4 *541:A 0.00043054
5 *572:B 0.000128843
6 *609:A 0.00012833
7 *608:A1 0
8 *600:A 0
9 *675:Q 0.000869535
10 *146:78 0.000836211
11 *146:72 0.000729369
12 *146:33 0.00107481
13 *146:16 0.00102653
14 *146:14 0.00056934
15 *146:10 0.000996816
16 *146:8 0.00117532
17 *559:B1 *146:72 3.89685e-05
18 *559:B1 *146:78 1.19509e-05
19 *565:B *146:78 0
20 *566:A *541:A 2.94881e-05
21 *566:A *563:A 3.70678e-06
22 *568:A *541:A 2.87555e-06
23 *568:A *563:A 1.08499e-05
24 *568:A *146:78 3.25732e-05
25 *568:B *146:78 5.62995e-05
26 *570:B *609:A 0.000114197
27 *571:B *572:B 0
28 *571:B *146:16 0
29 *589:A1 *572:B 0.000230568
30 *589:A1 *146:14 1.24368e-05
31 *589:A2 *146:14 2.13481e-06
32 *589:B1 *146:8 4.94761e-05
33 *589:B1 *146:10 7.43027e-05
34 *589:B1 *146:14 4.04683e-05
35 *590:A3 *146:72 4.37079e-05
36 *591:A *146:10 6.62058e-05
37 *591:C *146:72 0.000225139
38 *599:A *146:78 5.54204e-05
39 *599:B *146:78 5.89831e-05
40 *603:B1 *572:B 2.24656e-05
41 *621:C *146:10 5.50052e-05
42 *622:A *146:14 0.000308913
43 *625:A *609:A 0
44 *626:C *572:B 0.000126509
45 *675:CLK *146:8 0.000280061
46 *675:RESET_B *146:8 9.18583e-05
47 *44:10 *572:B 3.04901e-05
48 *44:10 *146:16 0.000121987
49 *88:18 *146:33 0.000232936
50 *90:10 *146:72 0.000220357
51 *90:20 *146:72 4.08063e-05
52 *90:38 *541:A 0.00021768
53 *90:87 *146:72 0.000282426
54 *103:17 *146:72 2.81349e-05
55 *103:17 *146:78 1.32511e-05
56 *108:6 *146:78 1.15172e-05
57 *136:42 *146:33 0.000170436
58 *144:50 *609:A 8.95675e-06
59 *144:50 *146:33 5.7903e-06
60 *144:103 *146:72 1.50223e-05
*RES
1 *675:Q *146:8 20.9429 
2 *146:8 *146:10 3.82143 
3 *146:10 *146:14 9.14286 
4 *146:14 *146:16 1.64286 
5 *146:16 *600:A 13.8 
6 *146:16 *146:33 8.80132 
7 *146:33 *608:A1 13.8 
8 *146:33 *609:A 16.2821 
9 *146:14 *572:B 17.2464 
10 *146:10 *146:72 14.0893 
11 *146:72 *146:78 10.1786 
12 *146:78 *541:A 16.8536 
13 *146:78 *563:A 10.2643 
14 *146:72 *559:A1 13.8 
15 *146:8 *621:B 9.72857 
*END

*D_NET *147 0.000527154
*CONN
*I *575:B I *D sky130_fd_sc_hd__nand2_1
*I *688:X O *D sky130_fd_sc_hd__clkbuf_1
*CAP
1 *575:B 0.000148339
2 *688:X 0.000148339
3 *575:B *158:16 0.000230475
*RES
1 *688:X *575:B 21.9214 
*END

*D_NET *148 0.00426443
*CONN
*I *707:A I *D sky130_fd_sc_hd__clkbuf_1
*I *617:Y O *D sky130_fd_sc_hd__a211oi_1
*CAP
1 *707:A 0
2 *617:Y 0.00122226
3 *148:18 0.00122226
4 *148:18 *550:A 0
5 *148:18 *157:14 3.54697e-06
6 *148:18 *176:16 0
7 *576:A2 *148:18 5.9483e-05
8 *616:B *148:18 5.7661e-06
9 *617:A1 *148:18 2.89114e-05
10 *617:B1 *148:18 3.74103e-05
11 *639:B *148:18 0.000167678
12 *640:A *148:18 0.00022277
13 *660:D *148:18 0.000181114
14 *660:RESET_B *148:18 0.000337402
15 *671:D *148:18 1.24368e-05
16 *17:130 *148:18 0.000135549
17 *59:18 *148:18 1.12713e-05
18 *59:93 *148:18 2.97489e-05
19 *59:106 *148:18 5.6685e-05
20 *85:12 *148:18 8.52458e-05
21 *86:10 *148:18 7.48381e-05
22 *86:12 *148:18 5.90322e-05
23 *124:10 *148:18 0.000311028
*RES
1 *617:Y *148:18 45.3357 
2 *148:18 *707:A 9.3 
*END

*D_NET *149 0.000248224
*CONN
*I *696:A I *D sky130_fd_sc_hd__buf_4
*I *666:Q O *D sky130_fd_sc_hd__dfrtp_1
*CAP
1 *696:A 7.36321e-05
2 *666:Q 7.36321e-05
3 pwr_gate_en *696:A 0.00010096
*RES
1 *666:Q *696:A 20.2786 
*END

*D_NET *150 0.000385652
*CONN
*I *697:A I *D sky130_fd_sc_hd__clkbuf_2
*I *671:Q O *D sky130_fd_sc_hd__dfrtp_1
*CAP
1 *697:A 0.000192826
2 *671:Q 0.000192826
3 pwr_state[0] *697:A 0
*RES
1 *671:Q *697:A 30.4929 
*END

*D_NET *151 0.000336611
*CONN
*I *698:A I *D sky130_fd_sc_hd__clkbuf_2
*I *672:Q O *D sky130_fd_sc_hd__dfrtp_1
*CAP
1 *698:A 0.000168306
2 *672:Q 0.000168306
*RES
1 *672:Q *698:A 29.8857 
*END

*D_NET *152 0.000191401
*CONN
*I *699:A I *D sky130_fd_sc_hd__buf_2
*I *670:Q O *D sky130_fd_sc_hd__dfrtp_1
*CAP
1 *699:A 9.57007e-05
2 *670:Q 9.57007e-05
3 reset_ctrl *699:A 0
*RES
1 *670:Q *699:A 29.2429 
*END

*D_NET *153 0.000731614
*CONN
*I *700:A I *D sky130_fd_sc_hd__buf_4
*I *667:Q O *D sky130_fd_sc_hd__dfrtp_1
*CAP
1 *700:A 0.000299016
2 *667:Q 0.000299016
3 *700:A *704:A 7.83587e-05
4 retention_en *700:A 5.52238e-05
5 *665:RESET_B *700:A 0
*RES
1 *667:Q *700:A 32.7429 
*END

*D_NET *154 0.000182482
*CONN
*I *701:A I *D sky130_fd_sc_hd__buf_2
*I *669:Q O *D sky130_fd_sc_hd__dfrtp_1
*CAP
1 *701:A 9.12412e-05
2 *669:Q 9.12412e-05
*RES
1 *669:Q *701:A 29.2429 
*END

*D_NET *155 0.000194674
*CONN
*I *702:A I *D sky130_fd_sc_hd__buf_2
*I *668:Q O *D sky130_fd_sc_hd__dfrtp_1
*CAP
1 *702:A 7.74707e-05
2 *668:Q 7.74707e-05
3 retention_save *702:A 3.9733e-05
*RES
1 *668:Q *702:A 29.2429 
*END

*D_NET *156 0.00169203
*CONN
*I *708:A I *D sky130_fd_sc_hd__buf_1
*I *557:Y O *D sky130_fd_sc_hd__nor2_1
*CAP
1 *708:A 0.000516235
2 *557:Y 0.000516235
3 *708:A *615:A2 1.08847e-05
4 *708:A *618:A 1.3701e-05
5 *708:A *159:10 9.91033e-05
6 *549:A *708:A 5.60777e-05
7 *549:B *708:A 1.24368e-05
8 *553:A *708:A 0.000309052
9 *569:B *708:A 7.8195e-05
10 *570:A *708:A 4.13122e-06
11 *607:A *708:A 0
12 *615:A1 *708:A 0
13 *615:B1 *708:A 6.13643e-05
14 *96:8 *708:A 1.46148e-05
*RES
1 *557:Y *708:A 38.0643 
*END

*D_NET *157 0.00377399
*CONN
*I *695:A I *D sky130_fd_sc_hd__clkbuf_2
*I *707:X O *D sky130_fd_sc_hd__clkbuf_1
*CAP
1 *695:A 0
2 *707:X 0.00143104
3 *157:14 0.00143104
4 *157:14 *703:A 0.000493352
5 *157:14 *174:14 0.000263558
6 seq_busy *157:14 0.000144773
7 *658:RESET_B *157:14 0
8 *671:D *157:14 6.67587e-06
9 *148:18 *157:14 3.54697e-06
*RES
1 *707:X *157:14 43.2821 
2 *157:14 *695:A 9.3 
*END

*D_NET *158 0.00319597
*CONN
*I *575:A I *D sky130_fd_sc_hd__nand2_1
*I *689:X O *D sky130_fd_sc_hd__clkbuf_1
*CAP
1 *575:A 0
2 *689:X 0.00146958
3 *158:16 0.00146958
4 *575:B *158:16 0.000230475
5 *688:A *158:16 2.63433e-05
*RES
1 *689:X *158:16 45.7643 
2 *158:16 *575:A 9.3 
*END

*D_NET *159 0.00847444
*CONN
*I *703:A I *D sky130_fd_sc_hd__clkbuf_2
*I *642:A I *D sky130_fd_sc_hd__nand3_1
*I *619:A I *D sky130_fd_sc_hd__nand2_1
*I *618:B I *D sky130_fd_sc_hd__or2_1
*I *708:X O *D sky130_fd_sc_hd__buf_1
*CAP
1 *703:A 0.000491096
2 *642:A 0.00137661
3 *619:A 2.52056e-05
4 *618:B 0
5 *708:X 0.000159293
6 *159:38 0.00213226
7 *159:27 0.000912406
8 *159:10 0.000781939
9 *642:A *177:12 5.54817e-06
10 *549:A *159:10 8.97632e-06
11 *615:A1 *159:10 4.48583e-05
12 *615:A1 *159:27 2.49484e-05
13 *627:A *619:A 5.52302e-05
14 *631:A *159:38 0.000127939
15 *631:B *642:A 0.000181032
16 *641:B *642:A 4.51556e-05
17 *649:B *642:A 7.80183e-05
18 *656:SET_B *159:27 0.000350734
19 *657:CLK *159:27 6.595e-05
20 *657:RESET_B *159:27 0.000127253
21 *657:RESET_B *159:38 0.000216306
22 *658:CLK *703:A 3.54808e-05
23 *658:D *703:A 5.71821e-05
24 *658:D *159:38 4.27842e-06
25 *672:D *703:A 0.000100831
26 *672:RESET_B *703:A 0
27 *708:A *159:10 9.91033e-05
28 *3:23 *703:A 0
29 *49:22 *703:A 3.54498e-05
30 *49:22 *159:27 0.000140021
31 *49:22 *159:38 0.000258703
32 *94:34 *159:27 3.92757e-05
33 *157:14 *703:A 0.000493352
*RES
1 *708:X *159:10 16.1929 
2 *159:10 *618:B 13.8 
3 *159:10 *159:27 19.5714 
4 *159:27 *619:A 14.3357 
5 *159:27 *159:38 8.01786 
6 *159:38 *642:A 40.0679 
7 *159:38 *703:A 25.2464 
*END

*D_NET *160 0.000406536
*CONN
*I *679:D I *D sky130_fd_sc_hd__dfrtp_1
*I *690:X O *D sky130_fd_sc_hd__clkbuf_1
*CAP
1 *679:D 0.000150421
2 *690:X 0.000150421
3 *679:CLK *679:D 5.04705e-05
4 *690:A *679:D 5.52238e-05
*RES
1 *690:X *679:D 20.7964 
*END

*D_NET *161 0.000360513
*CONN
*I *677:D I *D sky130_fd_sc_hd__dfrtp_1
*I *691:X O *D sky130_fd_sc_hd__clkbuf_1
*CAP
1 *677:D 0.000180256
2 *691:X 0.000180256
*RES
1 *691:X *677:D 30.1893 
*END

*D_NET *162 0.00123469
*CONN
*I *678:D I *D sky130_fd_sc_hd__dfrtp_1
*I *692:X O *D sky130_fd_sc_hd__clkbuf_1
*CAP
1 *678:D 0.000327728
2 *692:X 0.000327728
3 *678:D *561:A 8.87752e-05
4 *666:D *678:D 0.000259045
5 *692:A *678:D 5.83304e-05
6 *142:33 *678:D 0.000173084
*RES
1 *692:X *678:D 35.9393 
*END

*D_NET *163 0.003814
*CONN
*I *581:A I *D sky130_fd_sc_hd__inv_2
*I *693:X O *D sky130_fd_sc_hd__buf_1
*CAP
1 *581:A 0.000897394
2 *693:X 0.00100351
3 *163:10 0.0019009
4 *693:A *163:10 1.21955e-05
*RES
1 *693:X *163:10 36.9429 
2 *163:10 *581:A 23.8 
*END

*D_NET *164 0.00168804
*CONN
*I *676:D I *D sky130_fd_sc_hd__dfrtp_1
*I *694:X O *D sky130_fd_sc_hd__clkbuf_1
*CAP
1 *676:D 0.000818191
2 *694:X 0.000818191
3 *676:CLK *676:D 2.27416e-05
4 *694:A *676:D 2.89114e-05
*RES
1 *694:X *676:D 28.1893 
*END

*D_NET *165 0.000502041
*CONN
*I *704:A I *D sky130_fd_sc_hd__buf_4
*I *665:Q O *D sky130_fd_sc_hd__dfrtp_1
*CAP
1 *704:A 0.000211841
2 *665:Q 0.000211841
3 *700:A *704:A 7.83587e-05
*RES
1 *665:Q *704:A 31.6714 
*END

*D_NET *166 0.000615154
*CONN
*I *705:A I *D sky130_fd_sc_hd__clkbuf_2
*I *656:Q O *D sky130_fd_sc_hd__dfstp_1
*CAP
1 *705:A 0.000307577
2 *656:Q 0.000307577
3 dvfs_ctrl[1] *705:A 0
4 *657:D *705:A 0
*RES
1 *656:Q *705:A 32.7161 
*END

*D_NET *167 0.000677189
*CONN
*I *673:D I *D sky130_fd_sc_hd__dfrtp_4
*I *574:Y O *D sky130_fd_sc_hd__inv_2
*CAP
1 *673:D 0.000338595
2 *574:Y 0.000338595
*RES
1 *574:Y *673:D 32.9571 
*END

*D_NET *168 0.00163545
*CONN
*I *674:D I *D sky130_fd_sc_hd__dfrtp_1
*I *592:X O *D sky130_fd_sc_hd__clkbuf_1
*CAP
1 *674:D 0.000817727
2 *592:X 0.000817727
*RES
1 *592:X *674:D 38.1893 
*END

*D_NET *169 0.00078046
*CONN
*I *675:D I *D sky130_fd_sc_hd__dfrtp_4
*I *604:Y O *D sky130_fd_sc_hd__nand2_1
*CAP
1 *675:D 0.000357109
2 *604:Y 0.000357109
3 *604:A *675:D 2.85234e-05
4 *675:RESET_B *675:D 2.90582e-05
5 *145:6 *675:D 8.6608e-06
*RES
1 *604:Y *675:D 32.35 
*END

*D_NET *170 0.000929786
*CONN
*I *561:A I *D sky130_fd_sc_hd__inv_2
*I *683:Q O *D sky130_fd_sc_hd__dfrtp_1
*CAP
1 *561:A 0.000387153
2 *683:Q 0.000387153
3 *561:A *682:D 0
4 *673:RESET_B *561:A 0
5 *678:D *561:A 8.87752e-05
6 *683:RESET_B *561:A 6.67056e-05
7 *17:203 *561:A 0
*RES
1 *683:Q *561:A 34.0643 
*END

*D_NET *171 0.00235202
*CONN
*I *558:A I *D sky130_fd_sc_hd__inv_2
*I *601:C I *D sky130_fd_sc_hd__nand3_1
*I *681:Q O *D sky130_fd_sc_hd__dfrtp_1
*CAP
1 *558:A 0
2 *601:C 0.000431066
3 *681:Q 0.000360854
4 *171:12 0.00079192
5 *171:12 *564:A 3.18676e-05
6 *562:A *601:C 0
7 *565:A *601:C 2.27416e-05
8 *565:C *601:C 5.33334e-05
9 *598:A *601:C 0.000199009
10 *681:RESET_B *171:12 0.000270871
11 *682:RESET_B *171:12 3.69047e-06
12 *109:12 *171:12 0.000186669
*RES
1 *681:Q *171:12 26.0143 
2 *171:12 *601:C 16.7821 
3 *171:12 *558:A 9.3 
*END

*D_NET *172 0.000150811
*CONN
*I *564:A I *D sky130_fd_sc_hd__inv_2
*I *682:Q O *D sky130_fd_sc_hd__dfrtp_1
*CAP
1 *564:A 2.80151e-05
2 *682:Q 2.80151e-05
3 *681:RESET_B *564:A 6.29133e-05
4 *171:12 *564:A 3.18676e-05
*RES
1 *682:Q *564:A 19.5643 
*END

*D_NET *173 0.00551945
*CONN
*I *619:B I *D sky130_fd_sc_hd__nand2_1
*I *535:B I *D sky130_fd_sc_hd__nand2_1
*I *615:A2 I *D sky130_fd_sc_hd__o211a_1
*I *548:A I *D sky130_fd_sc_hd__inv_2
*I *618:A I *D sky130_fd_sc_hd__or2_1
*I *657:Q O *D sky130_fd_sc_hd__dfrtp_1
*CAP
1 *619:B 2.15918e-05
2 *535:B 0
3 *615:A2 0.000290105
4 *548:A 0
5 *618:A 0.000285861
6 *657:Q 0.000133312
7 *173:43 0.000567748
8 *173:35 0.000441471
9 *173:27 0.000234955
10 *173:8 0.000468709
11 *173:43 *535:A 5.65955e-05
12 *173:43 *174:14 4.33899e-05
13 *546:A *615:A2 5.49544e-05
14 *549:A *618:A 6.05161e-06
15 *553:A *615:A2 0.000126439
16 *615:B1 *615:A2 3.25642e-05
17 *620:A *618:A 3.67795e-05
18 *620:A *619:B 1.88048e-05
19 *620:A *173:27 3.0285e-05
20 *620:B *173:35 2.42662e-05
21 *627:A *173:35 9.90431e-05
22 *627:B *173:35 0.000225616
23 *656:SET_B *618:A 0.000100831
24 *657:CLK *173:8 9.76689e-05
25 *659:D *173:43 7.83659e-05
26 *708:A *615:A2 1.08847e-05
27 *708:A *618:A 1.3701e-05
28 *49:22 *618:A 0.000257915
29 *49:22 *619:B 4.73656e-05
30 *49:22 *173:27 9.22948e-05
31 *59:39 *173:35 8.67667e-05
32 *59:39 *173:43 4.0479e-05
33 *60:10 *173:35 0.000179745
34 *82:10 *173:43 0.000185118
35 *87:16 *615:A2 0.00022511
36 *94:6 *173:35 9.47269e-05
37 *94:6 *173:43 2.2816e-05
38 *94:12 *173:35 9.41642e-05
39 *94:34 *173:43 0
40 *136:42 *615:A2 0.000207076
41 *136:42 *173:43 0.000211585
42 *143:33 *618:A 0.000274294
*RES
1 *657:Q *173:8 15.5679 
2 *173:8 *618:A 21.3536 
3 *173:8 *173:27 1.33929 
4 *173:27 *173:35 10.4107 
5 *173:35 *173:43 11.7857 
6 *173:43 *548:A 13.8 
7 *173:43 *615:A2 20.7286 
8 *173:35 *535:B 9.3 
9 *173:27 *619:B 14.5321 
*END

*D_NET *174 0.0019979
*CONN
*I *547:A I *D sky130_fd_sc_hd__inv_2
*I *535:A I *D sky130_fd_sc_hd__nand2_1
*I *658:Q O *D sky130_fd_sc_hd__dfrtp_1
*CAP
1 *547:A 0
2 *535:A 9.02664e-06
3 *658:Q 0.000617922
4 *174:14 0.000626949
5 *644:A *174:14 1.97361e-05
6 *671:CLK *174:14 0
7 *59:39 *535:A 3.08664e-05
8 *59:39 *174:14 2.84026e-05
9 *136:42 *174:14 0.000301452
10 *157:14 *174:14 0.000263558
11 *173:43 *535:A 5.65955e-05
12 *173:43 *174:14 4.33899e-05
*RES
1 *658:Q *174:14 29.9429 
2 *174:14 *535:A 9.83571 
3 *174:14 *547:A 9.3 
*END

*D_NET *175 0.00217227
*CONN
*I *578:B I *D sky130_fd_sc_hd__nand2_1
*I *534:B I *D sky130_fd_sc_hd__nor2_1
*I *632:A I *D sky130_fd_sc_hd__inv_2
*I *552:A I *D sky130_fd_sc_hd__or3_1
*I *584:A1 I *D sky130_fd_sc_hd__a21oi_1
*I *659:Q O *D sky130_fd_sc_hd__dfrtp_1
*CAP
1 *578:B 0
2 *534:B 0.000118948
3 *632:A 0
4 *552:A 0
5 *584:A1 0.00017325
6 *659:Q 0
7 *175:41 0.000178997
8 *175:34 0.000207445
9 *175:8 0.000335694
10 *175:6 0.00030984
11 *552:C *584:A1 1.11845e-05
12 *552:C *175:8 2.84019e-05
13 *686:A *584:A1 0
14 *59:26 *175:34 5.49544e-05
15 *59:26 *175:41 0.000402086
16 *82:10 *175:34 2.84109e-05
17 *82:10 *175:41 0.000113691
18 *98:20 *534:B 2.26973e-05
19 *122:10 *175:41 0.000186669
20 *136:42 *175:8 0
21 *136:42 *175:34 0
*RES
1 *659:Q *175:6 13.8 
2 *175:6 *175:8 2.85714 
3 *175:8 *584:A1 16.7286 
4 *175:8 *552:A 13.8 
5 *175:6 *175:34 7.28571 
6 *175:34 *632:A 9.3 
7 *175:34 *175:41 3.82143 
8 *175:41 *534:B 20.2107 
9 *175:41 *578:B 9.3 
*END

*D_NET *176 0.00141583
*CONN
*I *550:A I *D sky130_fd_sc_hd__inv_2
*I *578:A I *D sky130_fd_sc_hd__nand2_1
*I *534:A I *D sky130_fd_sc_hd__nor2_1
*I *660:Q O *D sky130_fd_sc_hd__dfrtp_1
*CAP
1 *550:A 8.66217e-05
2 *578:A 0.000182405
3 *534:A 0
4 *660:Q 7.83826e-05
5 *176:16 0.000309626
6 *176:8 0.000292225
7 *579:A *176:8 2.89114e-05
8 *579:A *176:16 5.52238e-05
9 *579:B *550:A 1.10632e-05
10 *579:B *578:A 2.60898e-05
11 *579:B *176:16 6.13307e-05
12 *17:130 *176:16 9.69119e-06
13 *59:14 *550:A 4.73731e-05
14 *59:14 *176:16 3.50901e-05
15 *59:26 *578:A 3.51368e-05
16 *82:10 *578:A 3.68691e-05
17 *82:10 *176:16 9.60771e-05
18 *84:12 *550:A 1.00887e-05
19 *122:10 *578:A 1.36212e-05
20 *148:18 *550:A 0
21 *148:18 *176:16 0
*RES
1 *660:Q *176:8 14.7464 
2 *176:8 *176:16 7.73214 
3 *176:16 *534:A 9.3 
4 *176:16 *578:A 13.4607 
5 *176:8 *550:A 15.4429 
*END

*D_NET *177 0.00201575
*CONN
*I *537:B I *D sky130_fd_sc_hd__nor2_1
*I *642:B I *D sky130_fd_sc_hd__nand3_1
*I *641:A_N I *D sky130_fd_sc_hd__nand2b_1
*I *661:Q O *D sky130_fd_sc_hd__dfrtp_1
*CAP
1 *537:B 0.00020475
2 *642:B 0
3 *641:A_N 0
4 *661:Q 0.000319412
5 *177:21 0.000276637
6 *177:12 0.000391299
7 *641:B *177:12 9.15842e-06
8 *642:A *177:12 5.54817e-06
9 *642:C *537:B 0.000227179
10 *643:B *177:21 9.84729e-05
11 *649:B *177:12 0
12 *17:49 *177:12 0.000317039
13 *71:21 *537:B 9.58632e-05
14 *71:21 *177:21 4.34677e-05
15 *74:25 *537:B 2.69219e-05
*RES
1 *661:Q *177:12 22.9429 
2 *177:12 *641:A_N 9.3 
3 *177:12 *177:21 1.78571 
4 *177:21 *642:B 9.3 
5 *177:21 *537:B 13.55 
*END

*D_NET *178 0.000610799
*CONN
*I *645:A I *D sky130_fd_sc_hd__inv_2
*I *537:A I *D sky130_fd_sc_hd__nor2_1
*I *662:Q O *D sky130_fd_sc_hd__dfrtp_1
*CAP
1 *645:A 0
2 *537:A 5.65889e-05
3 *662:Q 0.000152116
4 *178:12 0.000208705
5 *660:RESET_B *178:12 6.42035e-05
6 *662:RESET_B *178:12 5.03772e-05
7 *74:25 *537:A 7.88091e-05
*RES
1 *662:Q *178:12 20.8893 
2 *178:12 *537:A 10.6571 
3 *178:12 *645:A 9.3 
*END

*D_NET *179 0.00267313
*CONN
*I *650:A I *D sky130_fd_sc_hd__or2_1
*I *538:A I *D sky130_fd_sc_hd__nor2_1
*I *651:B I *D sky130_fd_sc_hd__nand2_1
*I *663:Q O *D sky130_fd_sc_hd__dfrtp_1
*CAP
1 *650:A 0.000103696
2 *538:A 0.000117773
3 *651:B 5.89403e-05
4 *663:Q 0.000456153
5 *179:10 0.000357264
6 *179:6 0.0007404
7 *653:A *538:A 3.2923e-05
8 *653:B *538:A 0.000148837
9 *654:B *538:A 6.94441e-06
10 *655:A *538:A 5.54817e-06
11 *663:D *651:B 6.05161e-06
12 *663:D *179:10 0.00010996
13 *663:RESET_B *179:6 0.000136772
14 *664:D *538:A 2.85234e-05
15 *74:25 *651:B 3.49456e-06
16 *78:8 *651:B 9.84673e-05
17 *78:8 *179:10 0.000135028
18 *85:12 *538:A 3.11088e-05
19 *143:101 *538:A 9.52477e-05
*RES
1 *663:Q *179:6 14.7643 
2 *179:6 *179:10 3.83929 
3 *179:10 *651:B 10.675 
4 *179:10 *538:A 21.9964 
5 *179:6 *650:A 19.6393 
*END

*D_NET *180 0.00200012
*CONN
*I *654:A I *D sky130_fd_sc_hd__xor2_1
*I *538:B I *D sky130_fd_sc_hd__nor2_1
*I *664:Q O *D sky130_fd_sc_hd__dfrtp_1
*CAP
1 *654:A 9.59959e-05
2 *538:B 0.000305587
3 *664:Q 0.000522083
4 *180:6 0.000923666
5 *664:D *538:B 5.59275e-05
6 *664:RESET_B *180:6 5.00444e-05
7 *143:101 *538:B 4.68201e-05
*RES
1 *664:Q *180:6 15.5857 
2 *180:6 *538:B 13.4429 
3 *180:6 *654:A 19.9429 
*END

*D_NET *181 0.0020716
*CONN
*I *680:D I *D sky130_fd_sc_hd__dfrtp_1
*I *676:Q O *D sky130_fd_sc_hd__dfrtp_1
*CAP
1 *680:D 0.000942795
2 *676:Q 0.000942795
3 *680:D *681:D 0
4 *676:RESET_B *680:D 4.14471e-05
5 *680:CLK *680:D 6.05161e-06
6 *17:259 *680:D 7.26841e-05
7 *17:277 *680:D 6.58289e-05
*RES
1 *676:Q *680:D 42.5643 
*END

*D_NET *182 0.00070068
*CONN
*I *681:D I *D sky130_fd_sc_hd__dfrtp_1
*I *677:Q O *D sky130_fd_sc_hd__dfrtp_1
*CAP
1 *681:D 0.000266497
2 *677:Q 0.000266497
3 *676:CLK *681:D 2.50656e-05
4 *680:D *681:D 0
5 *142:14 *681:D 2.77154e-05
6 *142:29 *681:D 0.000114906
*RES
1 *677:Q *681:D 32.85 
*END

*D_NET *183 0.000625803
*CONN
*I *682:D I *D sky130_fd_sc_hd__dfrtp_1
*I *678:Q O *D sky130_fd_sc_hd__dfrtp_1
*CAP
1 *682:D 0.000238975
2 *678:Q 0.000238975
3 *561:A *682:D 0
4 *666:D *682:D 3.80808e-05
5 *682:CLK *682:D 0.000101545
6 *17:223 *682:D 8.22793e-06
*RES
1 *678:Q *682:D 31.6179 
*END

*D_NET *184 0.000502679
*CONN
*I *683:D I *D sky130_fd_sc_hd__dfrtp_1
*I *679:Q O *D sky130_fd_sc_hd__dfrtp_1
*CAP
1 *683:D 0.00022215
2 *679:Q 0.00022215
3 *679:RESET_B *683:D 3.18676e-05
4 *683:CLK *683:D 2.65105e-05
*RES
1 *679:Q *683:D 21.6179 
*END

*D_NET *185 0.00147654
*CONN
*I *590:A2 I *D sky130_fd_sc_hd__o311a_1
*I *567:A I *D sky130_fd_sc_hd__inv_2
*I *680:Q O *D sky130_fd_sc_hd__dfrtp_1
*CAP
1 *590:A2 0.000248266
2 *567:A 3.47624e-05
3 *680:Q 0.000353994
4 *185:12 0.000637023
5 *591:C *590:A2 2.33087e-05
6 *602:B1 *590:A2 5.49995e-05
7 *17:287 *185:12 6.74911e-05
8 *103:17 *590:A2 0
9 *144:93 *590:A2 5.66971e-05
*RES
1 *680:Q *185:12 24.5857 
2 *185:12 *567:A 9.83571 
3 *185:12 *590:A2 22.7286 
*END
